p cnf 59 104
1 0
-11 -2 0
-11 -3 0
-12 -5 4 0
-12 5 -4 0
12 -5 -4 0
12 5 4 0
-13 -6 0
-13 -7 0
13 6 7 0
14 12 6 0
14 -12 -6 0
15 -7 4 0
15 7 -4 0
-16 -14 0
-16 -15 0
-17 -13 0
-17 16 0
-18 8 0
-18 17 0
-19 11 0
-19 18 0
-20 -4 0
-20 12 0
-21 -13 0
-21 20 0
22 19 21 0
23 9 10 0
24 4 5 0
25 -13 -24 0
26 -23 -25 0
-27 7 -6 0
-27 -7 6 0
27 7 6 0
27 -7 -6 0
-28 9 -6 0
-28 -9 27 0
28 9 6 0
28 -9 -27 0
-29 9 -7 0
-29 -9 -6 0
29 9 7 0
29 -9 6 0
-30 -29 28 0
-30 29 -28 0
30 -29 -28 0
30 29 28 0
-31 10 29 0
-31 -10 30 0
31 10 -29 0
31 -10 -30 0
32 -31 5 0
32 31 -5 0
-33 10 28 0
-33 -10 29 0
33 10 -28 0
33 -10 -29 0
34 -33 4 0
34 33 -4 0
35 9 8 0
35 -9 -8 0
-36 9 0
-36 10 0
37 13 36 0
38 -35 -37 0
39 -34 -38 0
40 -32 -39 0
-41 -26 0
-41 -40 0
42 -22 41 0
43 -1 -42 0
-44 4 1 0
-44 -4 -1 0
-45 1 0
-45 44 0
-46 5 1 0
-46 -5 -1 0
-47 45 0
-47 46 0
-48 6 1 0
-48 -6 -1 0
-49 47 0
-49 48 0
-50 7 1 0
-50 -7 -1 0
-51 49 0
-51 50 0
-52 8 1 0
-52 -8 -1 0
-53 51 0
-53 52 0
-54 9 1 0
-54 -9 -1 0
-55 53 0
-55 54 0
-56 10 1 0
-56 -10 -1 0
-57 55 0
-57 56 0
-58 1 0
-58 57 0
-59 -43 0
-59 58 0
59 0
