p cnf 165 326
1 0
-29 -2 0
-29 -3 0
29 2 3 0
-30 -5 4 0
-30 5 -4 0
30 -5 -4 0
30 5 4 0
-31 -29 30 0
-31 29 -2 0
31 -29 -30 0
31 29 2 0
-32 -29 -4 0
-32 29 -3 0
32 -29 4 0
32 29 3 0
-33 -29 -6 0
-33 29 -2 0
33 -29 6 0
33 29 2 0
-34 -29 -7 0
-34 29 -3 0
34 -29 7 0
34 29 3 0
-35 -6 0
-35 -7 0
35 6 7 0
-36 30 -6 0
-36 -30 6 0
36 30 6 0
36 -30 -6 0
-37 -7 -4 0
-37 7 4 0
37 -7 4 0
37 7 -4 0
-38 -36 0
-38 -37 0
38 36 37 0
-39 -35 0
-39 38 0
39 35 -38 0
-40 29 0
-40 -39 0
40 -29 39 0
-41 -8 0
-41 40 0
41 8 -40 0
42 -8 -39 0
43 -29 -42 0
44 4 -30 0
45 35 -44 0
-46 -43 0
-46 -45 0
-47 -9 0
-47 -10 0
-48 -4 0
-48 -5 0
-49 35 0
-49 48 0
-50 47 0
-50 49 0
-51 7 -6 0
-51 -7 6 0
51 7 6 0
51 -7 -6 0
-52 9 -6 0
-52 -9 51 0
52 9 6 0
52 -9 -51 0
-53 9 -7 0
-53 -9 -6 0
53 9 7 0
53 -9 6 0
-54 -53 52 0
-54 53 -52 0
54 -53 -52 0
54 53 52 0
-55 10 53 0
-55 -10 54 0
55 10 -53 0
55 -10 -54 0
-56 -55 -5 0
-56 55 5 0
-57 10 52 0
-57 -10 53 0
57 10 -52 0
57 -10 -53 0
-58 -57 -4 0
-58 57 4 0
-59 9 -8 0
-59 -9 8 0
60 -9 -10 0
-61 -35 0
-61 -60 0
-62 59 0
-62 61 0
-63 58 0
-63 62 0
-64 56 0
-64 63 0
65 50 64 0
-66 46 0
-66 -65 0
-67 1 0
-67 66 0
-68 -31 -13 0
-68 31 13 0
-69 1 0
-69 68 0
-70 -32 -14 0
-70 32 14 0
-71 69 0
-71 70 0
-72 -33 -15 0
-72 33 15 0
-73 71 0
-73 72 0
-74 -34 -16 0
-74 34 16 0
-75 73 0
-75 74 0
-76 41 -17 0
-76 -41 17 0
-77 75 0
-77 76 0
-78 7 -4 0
-78 -7 4 0
78 7 4 0
78 -7 -4 0
-79 30 6 0
-79 -30 -6 0
79 30 -6 0
79 -30 6 0
-80 -35 0
-80 79 0
80 35 -79 0
-81 78 0
-81 80 0
81 -78 -80 0
-82 29 0
-82 -35 0
82 -29 35 0
-83 -81 0
-83 82 0
83 81 -82 0
-84 -9 0
-84 83 0
84 9 -83 0
-85 84 -18 0
-85 -84 18 0
-86 77 0
-86 85 0
-87 -10 9 0
-87 10 -9 0
87 -10 -9 0
87 10 9 0
-88 83 0
-88 -87 0
88 -83 87 0
-89 88 -19 0
-89 -88 19 0
-90 86 0
-90 89 0
91 11 12 0
-92 -15 0
-92 -16 0
92 15 16 0
-93 -14 13 0
-93 14 -13 0
93 -14 -13 0
93 14 13 0
-94 93 -15 0
-94 -93 15 0
-95 -16 -13 0
-95 16 13 0
96 94 95 0
97 92 -96 0
98 -17 -97 0
99 -91 -98 0
100 13 -93 0
101 92 -100 0
-102 -99 0
-102 -101 0
-103 -18 0
-103 -19 0
-104 -13 0
-104 -14 0
-105 92 0
-105 104 0
-106 103 0
-106 105 0
-107 16 -15 0
-107 -16 15 0
107 16 15 0
107 -16 -15 0
-108 18 -15 0
-108 -18 107 0
108 18 15 0
108 -18 -107 0
-109 18 -16 0
-109 -18 -15 0
109 18 16 0
109 -18 15 0
-110 -109 108 0
-110 109 -108 0
110 -109 -108 0
110 109 108 0
-111 19 109 0
-111 -19 110 0
111 19 -109 0
111 -19 -110 0
-112 -111 -14 0
-112 111 14 0
-113 19 108 0
-113 -19 109 0
113 19 -108 0
113 -19 -109 0
-114 -113 -13 0
-114 113 13 0
-115 18 -17 0
-115 -18 17 0
116 -18 -19 0
-117 -92 0
-117 -116 0
-118 115 0
-118 117 0
-119 114 0
-119 118 0
-120 112 0
-120 119 0
121 106 120 0
-122 102 0
-122 -121 0
-123 1 0
-123 122 0
124 20 21 0
-125 -24 0
-125 -25 0
125 24 25 0
-126 -23 22 0
-126 23 -22 0
126 -23 -22 0
126 23 22 0
-127 126 -24 0
-127 -126 24 0
-128 -25 -22 0
-128 25 22 0
129 127 128 0
130 125 -129 0
131 -26 -130 0
132 -124 -131 0
133 22 -126 0
134 125 -133 0
-135 -132 0
-135 -134 0
-136 -27 0
-136 -28 0
-137 -22 0
-137 -23 0
-138 125 0
-138 137 0
-139 136 0
-139 138 0
-140 25 -24 0
-140 -25 24 0
140 25 24 0
140 -25 -24 0
-141 27 -24 0
-141 -27 140 0
141 27 24 0
141 -27 -140 0
-142 27 -25 0
-142 -27 -24 0
142 27 25 0
142 -27 24 0
-143 -142 141 0
-143 142 -141 0
143 -142 -141 0
143 142 141 0
-144 28 142 0
-144 -28 143 0
144 28 -142 0
144 -28 -143 0
-145 -144 -23 0
-145 144 23 0
-146 28 141 0
-146 -28 142 0
146 28 -141 0
146 -28 -142 0
-147 -146 -22 0
-147 146 22 0
-148 27 -26 0
-148 -27 26 0
149 -27 -28 0
-150 -125 0
-150 -149 0
-151 148 0
-151 150 0
-152 147 0
-152 151 0
-153 145 0
-153 152 0
154 139 153 0
-155 135 0
-155 -154 0
-156 1 0
-156 155 0
-157 1 0
-157 1 0
-158 67 0
-158 157 0
-159 1 0
-159 158 0
-160 123 0
-160 159 0
-161 1 0
-161 160 0
-162 156 0
-162 161 0
-163 90 0
-163 162 0
-164 1 0
-164 163 0
-165 -1 0
-165 164 0
165 0
