p cnf 118 242
1 0
-20 -2 0
-20 -3 0
20 2 3 0
-21 -5 4 0
-21 5 -4 0
21 -5 -4 0
21 5 4 0
-22 -20 21 0
-22 20 -2 0
22 -20 -21 0
22 20 2 0
-23 -20 -4 0
-23 20 -3 0
23 -20 4 0
23 20 3 0
-24 -20 -6 0
-24 20 -2 0
24 -20 6 0
24 20 2 0
-25 -20 -7 0
-25 20 -3 0
25 -20 7 0
25 20 3 0
-26 -6 0
-26 -7 0
26 6 7 0
-27 21 -6 0
-27 -21 6 0
27 21 6 0
27 -21 -6 0
-28 -7 -4 0
-28 7 4 0
28 -7 4 0
28 7 -4 0
-29 -27 0
-29 -28 0
29 27 28 0
-30 -26 0
-30 29 0
30 26 -29 0
-31 20 0
-31 -30 0
31 -20 30 0
-32 -8 0
-32 31 0
32 8 -31 0
33 -8 -30 0
34 -20 -33 0
35 4 -21 0
36 26 -35 0
-37 -34 0
-37 -36 0
-38 -9 0
-38 -10 0
-39 -4 0
-39 -5 0
-40 26 0
-40 39 0
-41 38 0
-41 40 0
-42 7 -6 0
-42 -7 6 0
42 7 6 0
42 -7 -6 0
-43 9 -6 0
-43 -9 42 0
43 9 6 0
43 -9 -42 0
-44 9 -7 0
-44 -9 -6 0
44 9 7 0
44 -9 6 0
-45 -44 43 0
-45 44 -43 0
45 -44 -43 0
45 44 43 0
-46 10 44 0
-46 -10 45 0
46 10 -44 0
46 -10 -45 0
-47 -46 -5 0
-47 46 5 0
-48 10 43 0
-48 -10 44 0
48 10 -43 0
48 -10 -44 0
-49 -48 -4 0
-49 48 4 0
-50 9 -8 0
-50 -9 8 0
51 -9 -10 0
-52 -26 0
-52 -51 0
-53 50 0
-53 52 0
-54 49 0
-54 53 0
-55 47 0
-55 54 0
56 41 55 0
-57 37 0
-57 -56 0
-58 1 0
-58 57 0
-59 -22 -13 0
-59 22 13 0
-60 1 0
-60 59 0
-61 -23 -14 0
-61 23 14 0
-62 60 0
-62 61 0
-63 -24 -15 0
-63 24 15 0
-64 62 0
-64 63 0
-65 -25 -16 0
-65 25 16 0
-66 64 0
-66 65 0
-67 32 -17 0
-67 -32 17 0
-68 66 0
-68 67 0
-69 7 -4 0
-69 -7 4 0
69 7 4 0
69 -7 -4 0
-70 21 6 0
-70 -21 -6 0
70 21 -6 0
70 -21 6 0
-71 -26 0
-71 70 0
71 26 -70 0
-72 69 0
-72 71 0
72 -69 -71 0
-73 20 0
-73 -26 0
73 -20 26 0
-74 -72 0
-74 73 0
74 72 -73 0
-75 -9 0
-75 74 0
75 9 -74 0
-76 75 -18 0
-76 -75 18 0
-77 68 0
-77 76 0
-78 -10 9 0
-78 10 -9 0
78 -10 -9 0
78 10 9 0
-79 74 0
-79 -78 0
79 -74 78 0
-80 79 -19 0
-80 -79 19 0
-81 77 0
-81 80 0
-82 -11 0
-82 -12 0
-83 -15 0
-83 -16 0
83 15 16 0
-84 -14 13 0
-84 14 -13 0
84 -14 -13 0
84 14 13 0
85 84 15 0
85 -84 -15 0
86 -16 13 0
86 16 -13 0
-87 -85 0
-87 -86 0
-88 -83 0
-88 87 0
-89 17 0
-89 88 0
-90 82 0
-90 89 0
-91 -13 0
-91 84 0
-92 -83 0
-92 91 0
93 90 92 0
94 18 19 0
95 13 14 0
96 -83 -95 0
97 -94 -96 0
-98 16 -15 0
-98 -16 15 0
98 16 15 0
98 -16 -15 0
-99 18 -15 0
-99 -18 98 0
99 18 15 0
99 -18 -98 0
-100 18 -16 0
-100 -18 -15 0
100 18 16 0
100 -18 15 0
-101 -100 99 0
-101 100 -99 0
101 -100 -99 0
101 100 99 0
-102 19 100 0
-102 -19 101 0
102 19 -100 0
102 -19 -101 0
103 -102 14 0
103 102 -14 0
-104 19 99 0
-104 -19 100 0
104 19 -99 0
104 -19 -100 0
105 -104 13 0
105 104 -13 0
106 18 17 0
106 -18 -17 0
-107 18 0
-107 19 0
108 83 107 0
109 -106 -108 0
110 -105 -109 0
111 -103 -110 0
-112 -97 0
-112 -111 0
113 -93 112 0
114 -1 -113 0
-115 1 0
-115 81 0
-116 1 0
-116 115 0
-117 58 0
-117 116 0
-118 -114 0
-118 117 0
118 0
