p cnf 59 105
1 0
-11 -2 0
-11 -3 0
-12 -5 4 0
-12 5 -4 0
12 -5 -4 0
12 5 4 0
13 6 7 0
14 12 6 0
14 -12 -6 0
15 -7 4 0
15 7 -4 0
-16 -14 0
-16 -15 0
-17 -13 0
-17 16 0
18 2 3 0
-19 -5 4 0
-19 5 -4 0
19 -5 -4 0
19 5 4 0
-20 -6 0
-20 -7 0
20 6 7 0
-21 19 -6 0
-21 -19 6 0
-22 -7 -4 0
-22 7 4 0
23 21 22 0
24 20 -23 0
-25 8 0
-25 17 0
-26 11 0
-26 25 0
-27 -4 0
-27 12 0
-28 -13 0
-28 27 0
29 26 28 0
30 -1 -29 0
31 -8 -24 0
32 -18 -31 0
33 4 -19 0
34 20 -33 0
-35 -32 0
-35 -34 0
-36 -9 0
-36 -10 0
-37 -4 0
-37 -5 0
-38 20 0
-38 37 0
-39 36 0
-39 38 0
-40 7 -6 0
-40 -7 6 0
40 7 6 0
40 -7 -6 0
-41 9 -6 0
-41 -9 40 0
41 9 6 0
41 -9 -40 0
-42 9 -7 0
-42 -9 -6 0
42 9 7 0
42 -9 6 0
-43 -42 41 0
-43 42 -41 0
43 -42 -41 0
43 42 41 0
-44 10 42 0
-44 -10 43 0
44 10 -42 0
44 -10 -43 0
-45 -44 -5 0
-45 44 5 0
-46 10 41 0
-46 -10 42 0
46 10 -41 0
46 -10 -42 0
-47 -46 -4 0
-47 46 4 0
-48 9 -8 0
-48 -9 8 0
49 -9 -10 0
-50 -20 0
-50 -49 0
-51 48 0
-51 50 0
-52 47 0
-52 51 0
-53 45 0
-53 52 0
54 39 53 0
-55 35 0
-55 -54 0
-56 1 0
-56 55 0
-57 1 0
-57 1 0
-58 56 0
-58 57 0
-59 -30 0
-59 58 0
59 0
