p cnf 54 89
1 0
-7 -3 0
-7 -4 0
-8 5 0
-8 7 0
-9 -3 0
-9 4 0
10 -6 9 0
10 6 8 0
-11 3 0
-11 -4 0
-12 5 0
-12 11 0
-13 6 0
-13 12 0
14 -10 13 0
-15 -2 0
-15 -4 0
-16 5 0
-16 15 0
-17 6 0
-17 16 0
18 -14 17 0
-19 -2 0
-19 4 0
-20 -5 0
-20 19 0
-21 6 0
-21 20 0
22 -18 21 0
-23 -2 0
-23 4 0
-24 5 0
-24 23 0
-25 -6 0
-25 24 0
26 -22 25 0
-27 -2 0
-27 -3 0
-28 5 0
-28 27 0
29 -26 28 0
-30 -2 0
-30 -3 0
-31 4 0
-31 30 0
32 -29 31 0
-33 2 0
-33 3 0
-34 5 0
-34 33 0
-35 6 0
-35 34 0
36 -32 35 0
-37 2 0
-37 3 0
-38 4 0
-38 37 0
-39 -5 0
-39 38 0
-40 -6 0
-40 39 0
41 -36 40 0
42 -1 -41 0
-43 2 1 0
-43 -2 -1 0
-44 1 0
-44 43 0
-45 3 1 0
-45 -3 -1 0
-46 44 0
-46 45 0
-47 4 1 0
-47 -4 -1 0
-48 46 0
-48 47 0
-49 5 1 0
-49 -5 -1 0
-50 48 0
-50 49 0
-51 6 1 0
-51 -6 -1 0
-52 50 0
-52 51 0
-53 1 0
-53 52 0
-54 -42 0
-54 53 0
54 0
