p cnf 158 224
1 0
-19 -2 0
-19 -3 0
19 2 3 0
-20 -5 4 0
-20 5 -4 0
20 -5 -4 0
20 5 4 0
-21 -19 20 0
-21 19 -2 0
21 -19 -20 0
21 19 2 0
-22 -19 -4 0
-22 19 -3 0
22 -19 4 0
22 19 3 0
-23 -19 -6 0
-23 19 -2 0
23 -19 6 0
23 19 2 0
-24 -19 -7 0
-24 19 -3 0
24 -19 7 0
24 19 3 0
-25 -6 0
-25 -7 0
25 6 7 0
-26 20 -6 0
-26 -20 6 0
26 20 6 0
26 -20 -6 0
-27 -7 -4 0
-27 7 4 0
27 -7 4 0
27 7 -4 0
-28 -26 0
-28 -27 0
28 26 27 0
-29 -25 0
-29 28 0
29 25 -28 0
-30 19 0
-30 -29 0
30 -19 29 0
-31 -8 0
-31 30 0
31 8 -30 0
32 5 6 0
33 -7 -32 0
34 5 -6 0
-35 -8 -34 0
-35 8 -33 0
36 -5 6 0
37 -7 -36 0
38 -8 -37 0
-39 35 0
-39 -38 0
40 4 6 0
41 -7 -40 0
42 -8 -41 0
-43 39 0
-43 -42 0
44 4 -6 0
45 7 -44 0
46 -8 -45 0
-47 43 0
-47 -46 0
48 4 -6 0
49 -7 -48 0
50 8 -49 0
-51 47 0
-51 -50 0
52 4 5 0
53 -7 -52 0
-54 51 0
-54 -53 0
55 4 5 0
56 -6 -55 0
-57 54 0
-57 -56 0
58 -4 -5 0
59 -7 -58 0
60 -8 -59 0
-61 57 0
-61 -60 0
62 -4 -5 0
63 -6 -62 0
64 7 -63 0
65 8 -64 0
-66 61 0
-66 -65 0
-67 1 0
-67 66 0
-68 -21 -9 0
-68 21 9 0
-69 1 0
-69 68 0
-70 -22 -10 0
-70 22 10 0
-71 69 0
-71 70 0
-72 -23 -11 0
-72 23 11 0
-73 71 0
-73 72 0
-74 -24 -12 0
-74 24 12 0
-75 73 0
-75 74 0
-76 31 -13 0
-76 -31 13 0
-77 75 0
-77 76 0
78 10 11 0
79 -12 -78 0
80 10 -11 0
-81 -13 -80 0
-81 13 -79 0
82 -10 11 0
83 -12 -82 0
84 -13 -83 0
-85 81 0
-85 -84 0
86 9 11 0
87 -12 -86 0
88 -13 -87 0
-89 85 0
-89 -88 0
90 9 -11 0
91 12 -90 0
92 -13 -91 0
-93 89 0
-93 -92 0
94 9 -11 0
95 -12 -94 0
96 13 -95 0
-97 93 0
-97 -96 0
98 9 10 0
99 -12 -98 0
-100 97 0
-100 -99 0
101 9 10 0
102 -11 -101 0
-103 100 0
-103 -102 0
104 -9 -10 0
105 -12 -104 0
106 -13 -105 0
-107 103 0
-107 -106 0
108 -9 -10 0
109 -11 -108 0
110 12 -109 0
111 13 -110 0
-112 107 0
-112 -111 0
-113 1 0
-113 112 0
114 15 16 0
115 -17 -114 0
116 15 -16 0
-117 -18 -116 0
-117 18 -115 0
118 -15 16 0
119 -17 -118 0
120 -18 -119 0
-121 117 0
-121 -120 0
122 14 16 0
123 -17 -122 0
124 -18 -123 0
-125 121 0
-125 -124 0
126 14 -16 0
127 17 -126 0
128 -18 -127 0
-129 125 0
-129 -128 0
130 14 -16 0
131 -17 -130 0
132 18 -131 0
-133 129 0
-133 -132 0
134 14 15 0
135 -17 -134 0
-136 133 0
-136 -135 0
137 14 15 0
138 -16 -137 0
-139 136 0
-139 -138 0
140 -14 -15 0
141 -17 -140 0
142 -18 -141 0
-143 139 0
-143 -142 0
144 -14 -15 0
145 -16 -144 0
146 17 -145 0
147 18 -146 0
-148 143 0
-148 -147 0
-149 1 0
-149 148 0
-150 1 0
-150 1 0
-151 67 0
-151 150 0
-152 1 0
-152 151 0
-153 113 0
-153 152 0
-154 1 0
-154 153 0
-155 149 0
-155 154 0
-156 77 0
-156 155 0
-157 1 0
-157 156 0
-158 -1 0
-158 157 0
158 0
