p cnf 185 294
1 0
-21 -2 0
-21 -3 0
21 2 3 0
-22 -5 4 0
-22 5 -4 0
22 -5 -4 0
22 5 4 0
-23 -21 22 0
-23 21 -2 0
23 -21 -22 0
23 21 2 0
-24 -21 -4 0
-24 21 -3 0
24 -21 4 0
24 21 3 0
-25 -21 -6 0
-25 21 -2 0
25 -21 6 0
25 21 2 0
-26 -21 -7 0
-26 21 -3 0
26 -21 7 0
26 21 3 0
-27 -6 0
-27 -7 0
27 6 7 0
-28 22 -6 0
-28 -22 6 0
28 22 6 0
28 -22 -6 0
-29 -7 -4 0
-29 7 4 0
29 -7 4 0
29 7 -4 0
-30 -28 0
-30 -29 0
30 28 29 0
-31 -27 0
-31 30 0
31 27 -30 0
-32 21 0
-32 -31 0
32 -21 31 0
-33 -8 0
-33 32 0
33 8 -32 0
34 5 6 0
35 -7 -34 0
36 5 -6 0
-37 -8 -36 0
-37 8 -35 0
38 -5 6 0
39 -7 -38 0
40 -8 -39 0
-41 37 0
-41 -40 0
42 4 6 0
43 -7 -42 0
44 -8 -43 0
-45 41 0
-45 -44 0
46 4 -6 0
47 7 -46 0
48 -8 -47 0
-49 45 0
-49 -48 0
50 4 -6 0
51 -7 -50 0
52 8 -51 0
-53 49 0
-53 -52 0
54 4 5 0
55 -7 -54 0
-56 53 0
-56 -55 0
57 4 5 0
58 -6 -57 0
-59 56 0
-59 -58 0
60 -4 -5 0
61 -7 -60 0
62 -8 -61 0
-63 59 0
-63 -62 0
64 -4 -5 0
65 -6 -64 0
66 7 -65 0
67 8 -66 0
-68 63 0
-68 -67 0
-69 1 0
-69 68 0
-70 -23 -11 0
-70 23 11 0
-71 1 0
-71 70 0
-72 -24 -12 0
-72 24 12 0
-73 71 0
-73 72 0
-74 -25 -13 0
-74 25 13 0
-75 73 0
-75 74 0
-76 -26 -14 0
-76 26 14 0
-77 75 0
-77 76 0
-78 33 -15 0
-78 -33 15 0
-79 77 0
-79 78 0
80 12 13 0
81 -14 -80 0
82 12 -13 0
-83 -15 -82 0
-83 15 -81 0
84 -12 13 0
85 -14 -84 0
86 -15 -85 0
-87 83 0
-87 -86 0
88 11 13 0
89 -14 -88 0
90 -15 -89 0
-91 87 0
-91 -90 0
92 11 -13 0
93 14 -92 0
94 -15 -93 0
-95 91 0
-95 -94 0
96 11 -13 0
97 -14 -96 0
98 15 -97 0
-99 95 0
-99 -98 0
100 11 12 0
101 -14 -100 0
-102 99 0
-102 -101 0
103 11 12 0
104 -13 -103 0
-105 102 0
-105 -104 0
106 -11 -12 0
107 -14 -106 0
108 -15 -107 0
-109 105 0
-109 -108 0
110 -11 -12 0
111 -13 -110 0
112 14 -111 0
113 15 -112 0
-114 109 0
-114 -113 0
-115 1 0
-115 114 0
116 17 18 0
117 -19 -116 0
118 17 -18 0
-119 -20 -118 0
-119 20 -117 0
120 -17 18 0
121 -19 -120 0
122 -20 -121 0
-123 119 0
-123 -122 0
124 16 18 0
125 -19 -124 0
126 -20 -125 0
-127 123 0
-127 -126 0
128 16 -18 0
129 19 -128 0
130 -20 -129 0
-131 127 0
-131 -130 0
132 16 -18 0
133 -19 -132 0
134 20 -133 0
-135 131 0
-135 -134 0
136 16 17 0
137 -19 -136 0
-138 135 0
-138 -137 0
139 16 17 0
140 -18 -139 0
-141 138 0
-141 -140 0
142 -16 -17 0
143 -19 -142 0
144 -20 -143 0
-145 141 0
-145 -144 0
146 -16 -17 0
147 -18 -146 0
148 19 -147 0
149 20 -148 0
-150 145 0
-150 -149 0
-151 1 0
-151 150 0
-152 -9 0
-152 -10 0
152 9 10 0
-153 -12 11 0
-153 12 -11 0
153 -12 -11 0
153 12 11 0
-154 -152 153 0
-154 152 -9 0
154 -152 -153 0
154 152 9 0
-155 -154 -16 0
-155 154 16 0
-156 1 0
-156 155 0
-157 -152 -11 0
-157 152 -10 0
157 -152 11 0
157 152 10 0
-158 -157 -17 0
-158 157 17 0
-159 156 0
-159 158 0
-160 -152 -13 0
-160 152 -9 0
160 -152 13 0
160 152 9 0
-161 -160 -18 0
-161 160 18 0
-162 159 0
-162 161 0
-163 -152 -14 0
-163 152 -10 0
163 -152 14 0
163 152 10 0
-164 -163 -19 0
-164 163 19 0
-165 162 0
-165 164 0
-166 -13 0
-166 -14 0
166 13 14 0
-167 153 -13 0
-167 -153 13 0
167 153 13 0
167 -153 -13 0
-168 -14 -11 0
-168 14 11 0
168 -14 11 0
168 14 -11 0
-169 -167 0
-169 -168 0
169 167 168 0
-170 -166 0
-170 169 0
170 166 -169 0
-171 152 0
-171 -170 0
171 -152 170 0
-172 -15 0
-172 171 0
172 15 -171 0
-173 172 -20 0
-173 -172 20 0
-174 165 0
-174 173 0
-175 1 0
-175 1 0
-176 69 0
-176 175 0
-177 1 0
-177 176 0
-178 115 0
-178 177 0
-179 1 0
-179 178 0
-180 151 0
-180 179 0
-181 79 0
-181 180 0
-182 174 0
-182 181 0
-183 1 0
-183 182 0
-184 1 0
-184 183 0
-185 -1 0
-185 184 0
185 0
