p cnf 114 172
1 0
-14 -2 0
-14 -3 0
14 2 3 0
-15 -5 4 0
-15 5 -4 0
15 -5 -4 0
15 5 4 0
-16 -14 15 0
-16 14 -2 0
16 -14 -15 0
16 14 2 0
-17 -14 -4 0
-17 14 -3 0
17 -14 4 0
17 14 3 0
-18 -14 -6 0
-18 14 -2 0
18 -14 6 0
18 14 2 0
-19 -14 -7 0
-19 14 -3 0
19 -14 7 0
19 14 3 0
-20 -6 0
-20 -7 0
20 6 7 0
-21 15 -6 0
-21 -15 6 0
21 15 6 0
21 -15 -6 0
-22 -7 -4 0
-22 7 4 0
22 -7 4 0
22 7 -4 0
-23 -21 0
-23 -22 0
23 21 22 0
-24 -20 0
-24 23 0
24 20 -23 0
-25 14 0
-25 -24 0
25 -14 24 0
-26 -8 0
-26 25 0
26 8 -25 0
27 5 6 0
28 -7 -27 0
29 5 -6 0
-30 -8 -29 0
-30 8 -28 0
31 -5 6 0
32 -7 -31 0
33 -8 -32 0
-34 30 0
-34 -33 0
35 4 6 0
36 -7 -35 0
37 -8 -36 0
-38 34 0
-38 -37 0
39 4 -6 0
40 7 -39 0
41 -8 -40 0
-42 38 0
-42 -41 0
43 4 -6 0
44 -7 -43 0
45 8 -44 0
-46 42 0
-46 -45 0
47 4 5 0
48 -7 -47 0
-49 46 0
-49 -48 0
50 4 5 0
51 -6 -50 0
-52 49 0
-52 -51 0
53 -4 -5 0
54 -7 -53 0
55 -8 -54 0
-56 52 0
-56 -55 0
57 -4 -5 0
58 -6 -57 0
59 7 -58 0
60 8 -59 0
-61 56 0
-61 -60 0
-62 1 0
-62 61 0
-63 -16 -9 0
-63 16 9 0
-64 1 0
-64 63 0
-65 -17 -10 0
-65 17 10 0
-66 64 0
-66 65 0
-67 -18 -11 0
-67 18 11 0
-68 66 0
-68 67 0
-69 -19 -12 0
-69 19 12 0
-70 68 0
-70 69 0
-71 26 -13 0
-71 -26 13 0
-72 70 0
-72 71 0
73 10 11 0
74 -12 -73 0
75 10 -11 0
-76 -13 -75 0
-76 13 -74 0
77 -10 11 0
78 -12 -77 0
79 -13 -78 0
-80 76 0
-80 -79 0
81 9 11 0
82 -12 -81 0
83 -13 -82 0
-84 80 0
-84 -83 0
85 9 -11 0
86 12 -85 0
87 -13 -86 0
-88 84 0
-88 -87 0
89 9 -11 0
90 -12 -89 0
91 13 -90 0
-92 88 0
-92 -91 0
93 9 10 0
94 -12 -93 0
-95 92 0
-95 -94 0
96 9 10 0
97 -11 -96 0
-98 95 0
-98 -97 0
99 -9 -10 0
100 -12 -99 0
101 -13 -100 0
-102 98 0
-102 -101 0
103 -9 -10 0
104 -11 -103 0
105 12 -104 0
106 13 -105 0
-107 102 0
-107 -106 0
-108 1 0
-108 107 0
-109 1 0
-109 1 0
-110 62 0
-110 109 0
-111 1 0
-111 110 0
-112 108 0
-112 111 0
-113 72 0
-113 112 0
-114 -1 0
-114 113 0
114 0
