p cnf 60 79
1 0
-9 -2 0
-9 -3 0
-10 -5 4 0
-10 5 -4 0
10 -5 -4 0
10 5 4 0
11 6 7 0
12 10 6 0
12 -10 -6 0
13 -7 4 0
13 7 -4 0
-14 -12 0
-14 -13 0
-15 -11 0
-15 14 0
-16 8 0
-16 15 0
-17 9 0
-17 16 0
-18 -4 0
-18 10 0
-19 -11 0
-19 18 0
20 17 19 0
21 -1 -20 0
22 5 6 0
23 -7 -22 0
24 5 -6 0
-25 -8 -24 0
-25 8 -23 0
26 -5 6 0
27 -7 -26 0
28 -8 -27 0
-29 25 0
-29 -28 0
30 4 6 0
31 -7 -30 0
32 -8 -31 0
-33 29 0
-33 -32 0
34 4 -6 0
35 7 -34 0
36 -8 -35 0
-37 33 0
-37 -36 0
38 4 -6 0
39 -7 -38 0
40 8 -39 0
-41 37 0
-41 -40 0
42 4 5 0
43 -7 -42 0
-44 41 0
-44 -43 0
45 4 5 0
46 -6 -45 0
-47 44 0
-47 -46 0
48 -4 -5 0
49 -7 -48 0
50 -8 -49 0
-51 47 0
-51 -50 0
52 -4 -5 0
53 -6 -52 0
54 7 -53 0
55 8 -54 0
-56 51 0
-56 -55 0
-57 1 0
-57 56 0
-58 1 0
-58 1 0
-59 57 0
-59 58 0
-60 -21 0
-60 59 0
60 0
