p cnf 125 262
1 0
-19 -2 0
-19 -3 0
-20 -4 0
-20 -5 0
-21 19 0
-21 20 0
-22 -9 8 0
-22 9 -8 0
22 -9 -8 0
22 9 8 0
-23 -10 0
-23 -11 0
23 10 11 0
24 12 13 0
25 -23 -24 0
26 22 10 0
26 -22 -10 0
27 -11 6 0
27 11 -6 0
-28 -26 0
-28 -27 0
29 -12 7 0
29 12 -7 0
30 -13 8 0
30 13 -8 0
-31 -29 0
-31 -30 0
-32 28 0
-32 31 0
-33 -25 0
-33 32 0
-34 14 0
-34 33 0
-35 21 0
-35 34 0
-36 -6 0
-36 22 0
-37 -7 0
-37 -8 0
-38 36 0
-38 37 0
-39 -25 0
-39 38 0
40 35 39 0
41 15 16 0
42 17 -41 0
43 18 -42 0
-44 -12 0
-44 23 0
44 12 -23 0
-45 -13 0
-45 44 0
45 13 -44 0
46 6 7 0
47 8 -46 0
48 9 -47 0
49 -45 -48 0
50 -43 -49 0
-51 15 -11 0
-51 -15 -10 0
51 15 11 0
51 -15 10 0
-52 15 -12 0
-52 -15 -11 0
52 15 12 0
52 -15 11 0
-53 -52 51 0
-53 52 -51 0
53 -52 -51 0
53 52 51 0
-54 13 -12 0
-54 -13 12 0
54 13 12 0
54 -13 -12 0
-55 15 -10 0
-55 -15 54 0
55 15 10 0
55 -15 -54 0
-56 16 55 0
-56 -16 53 0
56 16 -55 0
56 -16 -53 0
-57 15 -13 0
-57 -15 -12 0
57 15 13 0
57 -15 12 0
-58 -57 52 0
-58 57 -52 0
58 -57 -52 0
58 57 52 0
-59 16 51 0
-59 -16 58 0
59 16 -51 0
59 -16 -58 0
-60 -59 56 0
-60 59 -56 0
60 -59 -56 0
60 59 56 0
-61 17 59 0
-61 -17 60 0
61 17 -59 0
61 -17 -60 0
-62 16 52 0
-62 -16 55 0
62 16 -52 0
62 -16 -55 0
-63 16 57 0
-63 -16 51 0
63 16 -57 0
63 -16 -51 0
-64 -63 62 0
-64 63 -62 0
64 -63 -62 0
64 63 62 0
-65 17 63 0
-65 -17 64 0
65 17 -63 0
65 -17 -64 0
-66 -65 61 0
-66 65 -61 0
66 -65 -61 0
66 65 61 0
-67 18 65 0
-67 -18 66 0
67 18 -65 0
67 -18 -66 0
68 -67 9 0
68 67 -9 0
-69 -62 56 0
-69 62 -56 0
69 -62 -56 0
69 62 56 0
-70 69 -63 0
-70 -69 63 0
70 69 63 0
70 -69 -63 0
-71 17 56 0
-71 -17 70 0
71 17 -56 0
71 -17 -70 0
-72 -62 59 0
-72 62 -59 0
72 -62 -59 0
72 62 59 0
-73 17 62 0
-73 -17 72 0
73 17 -62 0
73 -17 -72 0
-74 -73 71 0
-74 73 -71 0
74 -73 -71 0
74 73 71 0
-75 18 73 0
-75 -18 74 0
75 18 -73 0
75 -18 -74 0
76 -75 8 0
76 75 -8 0
-77 -73 61 0
-77 73 -61 0
77 -73 -61 0
77 73 61 0
-78 77 -65 0
-78 -77 65 0
78 77 65 0
78 -77 -65 0
-79 18 61 0
-79 -18 78 0
79 18 -61 0
79 -18 -78 0
80 -79 7 0
80 79 -7 0
-81 71 -61 0
-81 -71 61 0
81 71 61 0
81 -71 -61 0
-82 81 -73 0
-82 -81 73 0
82 81 73 0
82 -81 -73 0
-83 18 71 0
-83 -18 82 0
83 18 -71 0
83 -18 -82 0
84 -83 6 0
84 83 -6 0
-85 15 -14 0
-85 -15 14 0
-86 15 0
-86 16 0
-87 17 0
-87 86 0
-88 18 0
-88 87 0
89 45 88 0
90 85 -89 0
91 -84 -90 0
92 -80 -91 0
93 -76 -92 0
94 -68 -93 0
-95 -50 0
-95 -94 0
96 -40 95 0
97 -1 -96 0
-98 6 1 0
-98 -6 -1 0
-99 1 0
-99 98 0
-100 7 1 0
-100 -7 -1 0
-101 99 0
-101 100 0
-102 8 1 0
-102 -8 -1 0
-103 101 0
-103 102 0
-104 9 1 0
-104 -9 -1 0
-105 103 0
-105 104 0
-106 10 1 0
-106 -10 -1 0
-107 105 0
-107 106 0
-108 11 1 0
-108 -11 -1 0
-109 107 0
-109 108 0
-110 12 1 0
-110 -12 -1 0
-111 109 0
-111 110 0
-112 13 1 0
-112 -13 -1 0
-113 111 0
-113 112 0
-114 14 1 0
-114 -14 -1 0
-115 113 0
-115 114 0
-116 15 1 0
-116 -15 -1 0
-117 115 0
-117 116 0
-118 16 1 0
-118 -16 -1 0
-119 117 0
-119 118 0
-120 17 1 0
-120 -17 -1 0
-121 119 0
-121 120 0
-122 18 1 0
-122 -18 -1 0
-123 121 0
-123 122 0
-124 1 0
-124 123 0
-125 -97 0
-125 124 0
125 0
