p cnf 252 602
1 0
-36 -2 0
-36 -3 0
36 2 3 0
-37 -4 0
-37 -5 0
37 4 5 0
-38 36 0
-38 37 0
38 -36 -37 0
-39 -9 8 0
-39 9 -8 0
39 -9 -8 0
39 9 8 0
-40 -38 39 0
-40 38 -2 0
40 -38 -39 0
40 38 2 0
-41 -38 -6 0
-41 38 -3 0
41 -38 6 0
41 38 3 0
-42 -38 -7 0
-42 38 -4 0
42 -38 7 0
42 38 4 0
-43 -38 -8 0
-43 38 -5 0
43 -38 8 0
43 38 5 0
-44 -38 -10 0
-44 38 -2 0
44 -38 10 0
44 38 2 0
-45 -38 -11 0
-45 38 -3 0
45 -38 11 0
45 38 3 0
-46 -38 -12 0
-46 38 -4 0
46 -38 12 0
46 38 4 0
-47 -38 -13 0
-47 38 -5 0
47 -38 13 0
47 38 5 0
-48 -10 0
-48 -11 0
48 10 11 0
-49 -12 0
-49 -13 0
49 12 13 0
-50 48 0
-50 49 0
50 -48 -49 0
-51 39 -10 0
-51 -39 10 0
51 39 10 0
51 -39 -10 0
-52 -11 -6 0
-52 11 6 0
52 -11 6 0
52 11 -6 0
-53 -51 0
-53 -52 0
53 51 52 0
-54 -12 -7 0
-54 12 7 0
54 -12 7 0
54 12 -7 0
-55 -13 -8 0
-55 13 8 0
55 -13 8 0
55 13 -8 0
-56 -54 0
-56 -55 0
56 54 55 0
-57 53 0
-57 56 0
57 -53 -56 0
-58 -50 0
-58 57 0
58 50 -57 0
-59 38 0
-59 -58 0
59 -38 58 0
-60 -14 0
-60 59 0
60 14 -59 0
61 -14 -58 0
62 -38 -61 0
63 6 -39 0
64 7 8 0
65 -63 -64 0
66 50 -65 0
-67 -62 0
-67 -66 0
-68 -15 0
-68 -16 0
-69 -17 0
-69 68 0
-70 -18 0
-70 69 0
-71 -12 0
-71 48 0
71 12 -48 0
-72 -13 0
-72 71 0
72 13 -71 0
-73 -6 0
-73 -7 0
-74 -8 0
-74 73 0
-75 -9 0
-75 74 0
-76 72 0
-76 75 0
-77 70 0
-77 76 0
-78 15 -11 0
-78 -15 -10 0
78 15 11 0
78 -15 10 0
-79 15 -12 0
-79 -15 -11 0
79 15 12 0
79 -15 11 0
-80 -79 78 0
-80 79 -78 0
80 -79 -78 0
80 79 78 0
-81 13 -12 0
-81 -13 12 0
81 13 12 0
81 -13 -12 0
-82 15 -10 0
-82 -15 81 0
82 15 10 0
82 -15 -81 0
-83 16 82 0
-83 -16 80 0
83 16 -82 0
83 -16 -80 0
-84 15 -13 0
-84 -15 -12 0
84 15 13 0
84 -15 12 0
-85 -84 79 0
-85 84 -79 0
85 -84 -79 0
85 84 79 0
-86 16 78 0
-86 -16 85 0
86 16 -78 0
86 -16 -85 0
-87 -86 83 0
-87 86 -83 0
87 -86 -83 0
87 86 83 0
-88 17 86 0
-88 -17 87 0
88 17 -86 0
88 -17 -87 0
-89 16 79 0
-89 -16 82 0
89 16 -79 0
89 -16 -82 0
-90 16 84 0
-90 -16 78 0
90 16 -84 0
90 -16 -78 0
-91 -90 89 0
-91 90 -89 0
91 -90 -89 0
91 90 89 0
-92 17 90 0
-92 -17 91 0
92 17 -90 0
92 -17 -91 0
-93 -92 88 0
-93 92 -88 0
93 -92 -88 0
93 92 88 0
-94 18 92 0
-94 -18 93 0
94 18 -92 0
94 -18 -93 0
-95 -94 -9 0
-95 94 9 0
-96 -89 83 0
-96 89 -83 0
96 -89 -83 0
96 89 83 0
-97 96 -90 0
-97 -96 90 0
97 96 90 0
97 -96 -90 0
-98 17 83 0
-98 -17 97 0
98 17 -83 0
98 -17 -97 0
-99 -89 86 0
-99 89 -86 0
99 -89 -86 0
99 89 86 0
-100 17 89 0
-100 -17 99 0
100 17 -89 0
100 -17 -99 0
-101 -100 98 0
-101 100 -98 0
101 -100 -98 0
101 100 98 0
-102 18 100 0
-102 -18 101 0
102 18 -100 0
102 -18 -101 0
-103 -102 -8 0
-103 102 8 0
-104 -100 88 0
-104 100 -88 0
104 -100 -88 0
104 100 88 0
-105 104 -92 0
-105 -104 92 0
105 104 92 0
105 -104 -92 0
-106 18 88 0
-106 -18 105 0
106 18 -88 0
106 -18 -105 0
-107 -106 -7 0
-107 106 7 0
-108 98 -88 0
-108 -98 88 0
108 98 88 0
108 -98 -88 0
-109 108 -100 0
-109 -108 100 0
109 108 100 0
109 -108 -100 0
-110 18 98 0
-110 -18 109 0
110 18 -98 0
110 -18 -109 0
-111 -110 -6 0
-111 110 6 0
112 15 14 0
112 -15 -14 0
-113 15 0
-113 16 0
113 -15 -16 0
-114 17 0
-114 113 0
114 -17 -113 0
115 -18 -114 0
-116 -72 0
-116 -115 0
-117 -112 0
-117 116 0
-118 111 0
-118 117 0
-119 107 0
-119 118 0
-120 103 0
-120 119 0
-121 95 0
-121 120 0
122 77 121 0
-123 67 0
-123 -122 0
-124 1 0
-124 123 0
-125 -40 -23 0
-125 40 23 0
-126 1 0
-126 125 0
-127 -41 -24 0
-127 41 24 0
-128 126 0
-128 127 0
-129 -42 -25 0
-129 42 25 0
-130 128 0
-130 129 0
-131 -43 -26 0
-131 43 26 0
-132 130 0
-132 131 0
-133 -44 -27 0
-133 44 27 0
-134 132 0
-134 133 0
-135 -45 -28 0
-135 45 28 0
-136 134 0
-136 135 0
-137 -46 -29 0
-137 46 29 0
-138 136 0
-138 137 0
-139 -47 -30 0
-139 47 30 0
-140 138 0
-140 139 0
-141 60 -31 0
-141 -60 31 0
-142 140 0
-142 141 0
-143 13 -8 0
-143 -13 8 0
143 13 8 0
143 -13 -8 0
-144 12 -7 0
-144 -12 7 0
144 12 7 0
144 -12 -7 0
-145 11 -6 0
-145 -11 6 0
145 11 6 0
145 -11 -6 0
-146 39 10 0
-146 -39 -10 0
146 39 -10 0
146 -39 10 0
-147 -72 0
-147 146 0
147 72 -146 0
-148 145 0
-148 147 0
148 -145 -147 0
-149 144 0
-149 148 0
149 -144 -148 0
-150 143 0
-150 149 0
150 -143 -149 0
-151 -4 0
-151 36 0
151 4 -36 0
-152 -5 0
-152 151 0
152 5 -151 0
-153 -72 0
-153 152 0
153 72 -152 0
-154 -150 0
-154 153 0
154 150 -153 0
-155 -15 0
-155 154 0
155 15 -154 0
-156 155 -32 0
-156 -155 32 0
-157 142 0
-157 156 0
-158 -16 15 0
-158 16 -15 0
158 -16 -15 0
158 16 15 0
-159 154 0
-159 -158 0
159 -154 158 0
-160 159 -33 0
-160 -159 33 0
-161 157 0
-161 160 0
-162 113 -17 0
-162 -113 17 0
162 113 17 0
162 -113 -17 0
-163 154 0
-163 -162 0
163 -154 162 0
-164 163 -34 0
-164 -163 34 0
-165 161 0
-165 164 0
-166 114 -18 0
-166 -114 18 0
166 114 18 0
166 -114 -18 0
-167 154 0
-167 -166 0
167 -154 166 0
-168 167 -35 0
-168 -167 35 0
-169 165 0
-169 168 0
-170 -19 0
-170 -20 0
-171 -21 0
-171 -22 0
-172 170 0
-172 171 0
-173 -27 0
-173 -28 0
173 27 28 0
174 29 30 0
175 -173 -174 0
-176 -26 25 0
-176 26 -25 0
176 -26 -25 0
176 26 25 0
177 176 27 0
177 -176 -27 0
178 -28 23 0
178 28 -23 0
-179 -177 0
-179 -178 0
180 -29 24 0
180 29 -24 0
181 -30 25 0
181 30 -25 0
-182 -180 0
-182 -181 0
-183 179 0
-183 182 0
-184 -175 0
-184 183 0
-185 31 0
-185 184 0
-186 172 0
-186 185 0
-187 -23 0
-187 176 0
-188 -24 0
-188 -25 0
-189 187 0
-189 188 0
-190 -175 0
-190 189 0
191 186 190 0
192 32 33 0
193 34 -192 0
194 35 -193 0
-195 -29 0
-195 173 0
195 29 -173 0
-196 -30 0
-196 195 0
196 30 -195 0
197 23 24 0
198 25 -197 0
199 26 -198 0
200 -196 -199 0
201 -194 -200 0
-202 32 -28 0
-202 -32 -27 0
202 32 28 0
202 -32 27 0
-203 32 -29 0
-203 -32 -28 0
203 32 29 0
203 -32 28 0
-204 -203 202 0
-204 203 -202 0
204 -203 -202 0
204 203 202 0
-205 30 -29 0
-205 -30 29 0
205 30 29 0
205 -30 -29 0
-206 32 -27 0
-206 -32 205 0
206 32 27 0
206 -32 -205 0
-207 33 206 0
-207 -33 204 0
207 33 -206 0
207 -33 -204 0
-208 32 -30 0
-208 -32 -29 0
208 32 30 0
208 -32 29 0
-209 -208 203 0
-209 208 -203 0
209 -208 -203 0
209 208 203 0
-210 33 202 0
-210 -33 209 0
210 33 -202 0
210 -33 -209 0
-211 -210 207 0
-211 210 -207 0
211 -210 -207 0
211 210 207 0
-212 34 210 0
-212 -34 211 0
212 34 -210 0
212 -34 -211 0
-213 33 203 0
-213 -33 206 0
213 33 -203 0
213 -33 -206 0
-214 33 208 0
-214 -33 202 0
214 33 -208 0
214 -33 -202 0
-215 -214 213 0
-215 214 -213 0
215 -214 -213 0
215 214 213 0
-216 34 214 0
-216 -34 215 0
216 34 -214 0
216 -34 -215 0
-217 -216 212 0
-217 216 -212 0
217 -216 -212 0
217 216 212 0
-218 35 216 0
-218 -35 217 0
218 35 -216 0
218 -35 -217 0
219 -218 26 0
219 218 -26 0
-220 -213 207 0
-220 213 -207 0
220 -213 -207 0
220 213 207 0
-221 220 -214 0
-221 -220 214 0
221 220 214 0
221 -220 -214 0
-222 34 207 0
-222 -34 221 0
222 34 -207 0
222 -34 -221 0
-223 -213 210 0
-223 213 -210 0
223 -213 -210 0
223 213 210 0
-224 34 213 0
-224 -34 223 0
224 34 -213 0
224 -34 -223 0
-225 -224 222 0
-225 224 -222 0
225 -224 -222 0
225 224 222 0
-226 35 224 0
-226 -35 225 0
226 35 -224 0
226 -35 -225 0
227 -226 25 0
227 226 -25 0
-228 -224 212 0
-228 224 -212 0
228 -224 -212 0
228 224 212 0
-229 228 -216 0
-229 -228 216 0
229 228 216 0
229 -228 -216 0
-230 35 212 0
-230 -35 229 0
230 35 -212 0
230 -35 -229 0
231 -230 24 0
231 230 -24 0
-232 222 -212 0
-232 -222 212 0
232 222 212 0
232 -222 -212 0
-233 232 -224 0
-233 -232 224 0
233 232 224 0
233 -232 -224 0
-234 35 222 0
-234 -35 233 0
234 35 -222 0
234 -35 -233 0
235 -234 23 0
235 234 -23 0
-236 32 -31 0
-236 -32 31 0
-237 32 0
-237 33 0
-238 34 0
-238 237 0
-239 35 0
-239 238 0
240 196 239 0
241 236 -240 0
242 -235 -241 0
243 -231 -242 0
244 -227 -243 0
245 -219 -244 0
-246 -201 0
-246 -245 0
247 -191 246 0
248 -1 -247 0
-249 1 0
-249 169 0
-250 1 0
-250 249 0
-251 124 0
-251 250 0
-252 -248 0
-252 251 0
252 0
