p cnf 49 70
1 0
-11 2 1 0
-11 -2 -1 0
-12 1 0
-12 11 0
-13 3 1 0
-13 -3 -1 0
-14 12 0
-14 13 0
-15 4 1 0
-15 -4 -1 0
-16 14 0
-16 15 0
-17 5 1 0
-17 -5 -1 0
-18 16 0
-18 17 0
-19 6 1 0
-19 -6 -1 0
-20 18 0
-20 19 0
-21 7 1 0
-21 -7 -1 0
-22 20 0
-22 21 0
-23 8 1 0
-23 -8 -1 0
-24 22 0
-24 23 0
-25 9 1 0
-25 -9 -1 0
-26 24 0
-26 25 0
-27 10 1 0
-27 -10 -1 0
-28 26 0
-28 27 0
-29 1 0
-29 28 0
30 2 -1 0
30 -2 1 0
31 -1 -30 0
32 3 -1 0
32 -3 1 0
33 -31 -32 0
34 4 -1 0
34 -4 1 0
35 -33 -34 0
36 5 -1 0
36 -5 1 0
37 -35 -36 0
38 6 -1 0
38 -6 1 0
39 -37 -38 0
40 7 -1 0
40 -7 1 0
41 -39 -40 0
42 8 -1 0
42 -8 1 0
43 -41 -42 0
44 9 -1 0
44 -9 1 0
45 -43 -44 0
46 10 -1 0
46 -10 1 0
47 -45 -46 0
48 -1 -47 0
-49 29 0
-49 -48 0
49 0
