p cnf 123 257
1 0
-19 -2 0
-19 -3 0
-20 -4 0
-20 -5 0
-21 19 0
-21 20 0
-22 -9 8 0
-22 9 -8 0
22 -9 -8 0
22 9 8 0
23 10 11 0
24 12 13 0
25 -23 -24 0
26 22 10 0
26 -22 -10 0
27 -11 6 0
27 11 -6 0
-28 -26 0
-28 -27 0
29 -12 7 0
29 12 -7 0
30 -13 8 0
30 13 -8 0
-31 -29 0
-31 -30 0
-32 28 0
-32 31 0
-33 -25 0
-33 32 0
34 2 3 0
35 4 5 0
36 -34 -35 0
-37 -9 8 0
-37 9 -8 0
37 -9 -8 0
37 9 8 0
-38 -10 0
-38 -11 0
38 10 11 0
-39 -12 0
-39 -13 0
-40 38 0
-40 39 0
-41 37 -10 0
-41 -37 10 0
-42 -11 -6 0
-42 11 6 0
43 41 42 0
-44 -12 -7 0
-44 12 7 0
-45 -13 -8 0
-45 13 8 0
46 44 45 0
47 -43 -46 0
48 40 -47 0
-49 14 0
-49 33 0
-50 21 0
-50 49 0
-51 -6 0
-51 22 0
-52 -7 0
-52 -8 0
-53 51 0
-53 52 0
-54 -25 0
-54 53 0
55 50 54 0
56 -1 -55 0
57 -14 -48 0
58 -36 -57 0
59 6 -37 0
60 7 8 0
61 -59 -60 0
62 40 -61 0
-63 -58 0
-63 -62 0
-64 -15 0
-64 -16 0
-65 -17 0
-65 64 0
-66 -18 0
-66 65 0
-67 -12 0
-67 38 0
67 12 -38 0
-68 -13 0
-68 67 0
68 13 -67 0
-69 -6 0
-69 -7 0
-70 -8 0
-70 69 0
-71 -9 0
-71 70 0
-72 68 0
-72 71 0
-73 66 0
-73 72 0
-74 15 -11 0
-74 -15 -10 0
74 15 11 0
74 -15 10 0
-75 15 -12 0
-75 -15 -11 0
75 15 12 0
75 -15 11 0
-76 -75 74 0
-76 75 -74 0
76 -75 -74 0
76 75 74 0
-77 13 -12 0
-77 -13 12 0
77 13 12 0
77 -13 -12 0
-78 15 -10 0
-78 -15 77 0
78 15 10 0
78 -15 -77 0
-79 16 78 0
-79 -16 76 0
79 16 -78 0
79 -16 -76 0
-80 15 -13 0
-80 -15 -12 0
80 15 13 0
80 -15 12 0
-81 -80 75 0
-81 80 -75 0
81 -80 -75 0
81 80 75 0
-82 16 74 0
-82 -16 81 0
82 16 -74 0
82 -16 -81 0
-83 -82 79 0
-83 82 -79 0
83 -82 -79 0
83 82 79 0
-84 17 82 0
-84 -17 83 0
84 17 -82 0
84 -17 -83 0
-85 16 75 0
-85 -16 78 0
85 16 -75 0
85 -16 -78 0
-86 16 80 0
-86 -16 74 0
86 16 -80 0
86 -16 -74 0
-87 -86 85 0
-87 86 -85 0
87 -86 -85 0
87 86 85 0
-88 17 86 0
-88 -17 87 0
88 17 -86 0
88 -17 -87 0
-89 -88 84 0
-89 88 -84 0
89 -88 -84 0
89 88 84 0
-90 18 88 0
-90 -18 89 0
90 18 -88 0
90 -18 -89 0
-91 -90 -9 0
-91 90 9 0
-92 -85 79 0
-92 85 -79 0
92 -85 -79 0
92 85 79 0
-93 92 -86 0
-93 -92 86 0
93 92 86 0
93 -92 -86 0
-94 17 79 0
-94 -17 93 0
94 17 -79 0
94 -17 -93 0
-95 -85 82 0
-95 85 -82 0
95 -85 -82 0
95 85 82 0
-96 17 85 0
-96 -17 95 0
96 17 -85 0
96 -17 -95 0
-97 -96 94 0
-97 96 -94 0
97 -96 -94 0
97 96 94 0
-98 18 96 0
-98 -18 97 0
98 18 -96 0
98 -18 -97 0
-99 -98 -8 0
-99 98 8 0
-100 -96 84 0
-100 96 -84 0
100 -96 -84 0
100 96 84 0
-101 100 -88 0
-101 -100 88 0
101 100 88 0
101 -100 -88 0
-102 18 84 0
-102 -18 101 0
102 18 -84 0
102 -18 -101 0
-103 -102 -7 0
-103 102 7 0
-104 94 -84 0
-104 -94 84 0
104 94 84 0
104 -94 -84 0
-105 104 -96 0
-105 -104 96 0
105 104 96 0
105 -104 -96 0
-106 18 94 0
-106 -18 105 0
106 18 -94 0
106 -18 -105 0
-107 -106 -6 0
-107 106 6 0
108 15 14 0
108 -15 -14 0
109 -15 -16 0
110 -17 -109 0
111 -18 -110 0
-112 -68 0
-112 -111 0
-113 -108 0
-113 112 0
-114 107 0
-114 113 0
-115 103 0
-115 114 0
-116 99 0
-116 115 0
-117 91 0
-117 116 0
118 73 117 0
-119 63 0
-119 -118 0
-120 1 0
-120 119 0
-121 1 0
-121 1 0
-122 120 0
-122 121 0
-123 -56 0
-123 122 0
123 0
