p cnf 114 250
1 0
-24 -2 0
-24 -3 0
24 2 3 0
-25 -4 0
-25 -5 0
25 4 5 0
-26 24 0
-26 25 0
26 -24 -25 0
-27 -9 8 0
-27 9 -8 0
27 -9 -8 0
27 9 8 0
-28 -26 27 0
-28 26 -2 0
28 -26 -27 0
28 26 2 0
-29 -28 -15 0
-29 28 15 0
-30 1 0
-30 29 0
-31 -26 -6 0
-31 26 -3 0
31 -26 6 0
31 26 3 0
-32 -31 -16 0
-32 31 16 0
-33 30 0
-33 32 0
-34 -26 -7 0
-34 26 -4 0
34 -26 7 0
34 26 4 0
-35 -34 -17 0
-35 34 17 0
-36 33 0
-36 35 0
-37 -26 -8 0
-37 26 -5 0
37 -26 8 0
37 26 5 0
-38 -37 -18 0
-38 37 18 0
-39 36 0
-39 38 0
-40 -26 -10 0
-40 26 -2 0
40 -26 10 0
40 26 2 0
-41 -40 -19 0
-41 40 19 0
-42 39 0
-42 41 0
-43 -26 -11 0
-43 26 -3 0
43 -26 11 0
43 26 3 0
-44 -43 -20 0
-44 43 20 0
-45 42 0
-45 44 0
-46 -26 -12 0
-46 26 -4 0
46 -26 12 0
46 26 4 0
-47 -46 -21 0
-47 46 21 0
-48 45 0
-48 47 0
-49 -26 -13 0
-49 26 -5 0
49 -26 13 0
49 26 5 0
-50 -49 -22 0
-50 49 22 0
-51 48 0
-51 50 0
-52 -10 0
-52 -11 0
52 10 11 0
-53 -12 0
-53 -13 0
53 12 13 0
-54 52 0
-54 53 0
54 -52 -53 0
-55 27 -10 0
-55 -27 10 0
55 27 10 0
55 -27 -10 0
-56 -11 -6 0
-56 11 6 0
56 -11 6 0
56 11 -6 0
-57 -55 0
-57 -56 0
57 55 56 0
-58 -12 -7 0
-58 12 7 0
58 -12 7 0
58 12 -7 0
-59 -13 -8 0
-59 13 8 0
59 -13 8 0
59 13 -8 0
-60 -58 0
-60 -59 0
60 58 59 0
-61 57 0
-61 60 0
61 -57 -60 0
-62 -54 0
-62 61 0
62 54 -61 0
-63 26 0
-63 -62 0
63 -26 62 0
-64 -14 0
-64 63 0
64 14 -63 0
-65 64 -23 0
-65 -64 23 0
-66 51 0
-66 65 0
-67 1 0
-67 66 0
-68 1 0
-68 67 0
-69 1 0
-69 68 0
-70 -2 0
-70 -3 0
70 2 3 0
-71 -4 0
-71 -5 0
71 4 5 0
-72 70 0
-72 71 0
72 -70 -71 0
-73 -9 8 0
-73 9 -8 0
73 -9 -8 0
73 9 8 0
-74 -72 73 0
-74 72 -2 0
74 -72 -73 0
74 72 2 0
75 -74 15 0
75 74 -15 0
76 -1 -75 0
-77 -72 -6 0
-77 72 -3 0
77 -72 6 0
77 72 3 0
78 -77 16 0
78 77 -16 0
79 -76 -78 0
-80 -72 -7 0
-80 72 -4 0
80 -72 7 0
80 72 4 0
81 -80 17 0
81 80 -17 0
82 -79 -81 0
-83 -72 -8 0
-83 72 -5 0
83 -72 8 0
83 72 5 0
84 -83 18 0
84 83 -18 0
85 -82 -84 0
-86 -72 -10 0
-86 72 -2 0
86 -72 10 0
86 72 2 0
87 -86 19 0
87 86 -19 0
88 -85 -87 0
-89 -72 -11 0
-89 72 -3 0
89 -72 11 0
89 72 3 0
90 -89 20 0
90 89 -20 0
91 -88 -90 0
-92 -72 -12 0
-92 72 -4 0
92 -72 12 0
92 72 4 0
93 -92 21 0
93 92 -21 0
94 -91 -93 0
-95 -72 -13 0
-95 72 -5 0
95 -72 13 0
95 72 5 0
96 -95 22 0
96 95 -22 0
97 -94 -96 0
-98 -10 0
-98 -11 0
98 10 11 0
-99 -12 0
-99 -13 0
99 12 13 0
-100 98 0
-100 99 0
100 -98 -99 0
-101 73 -10 0
-101 -73 10 0
101 73 10 0
101 -73 -10 0
-102 -11 -6 0
-102 11 6 0
102 -11 6 0
102 11 -6 0
-103 -101 0
-103 -102 0
103 101 102 0
-104 -12 -7 0
-104 12 7 0
104 -12 7 0
104 12 -7 0
-105 -13 -8 0
-105 13 8 0
105 -13 8 0
105 13 -8 0
-106 -104 0
-106 -105 0
106 104 105 0
-107 103 0
-107 106 0
107 -103 -106 0
-108 -100 0
-108 107 0
108 100 -107 0
-109 72 0
-109 -108 0
109 -72 108 0
-110 -14 0
-110 109 0
110 14 -109 0
111 110 23 0
111 -110 -23 0
112 -97 -111 0
113 -1 -112 0
-114 69 0
-114 -113 0
114 0
