p cnf 233 534
1 0
-36 -2 0
-36 -3 0
36 2 3 0
-37 -4 0
-37 -5 0
37 4 5 0
-38 36 0
-38 37 0
38 -36 -37 0
-39 -9 8 0
-39 9 -8 0
39 -9 -8 0
39 9 8 0
-40 -38 39 0
-40 38 -2 0
40 -38 -39 0
40 38 2 0
-41 -38 -6 0
-41 38 -3 0
41 -38 6 0
41 38 3 0
-42 -38 -7 0
-42 38 -4 0
42 -38 7 0
42 38 4 0
-43 -38 -8 0
-43 38 -5 0
43 -38 8 0
43 38 5 0
-44 -38 -10 0
-44 38 -2 0
44 -38 10 0
44 38 2 0
-45 -38 -11 0
-45 38 -3 0
45 -38 11 0
45 38 3 0
-46 -38 -12 0
-46 38 -4 0
46 -38 12 0
46 38 4 0
-47 -38 -13 0
-47 38 -5 0
47 -38 13 0
47 38 5 0
-48 -10 0
-48 -11 0
48 10 11 0
-49 -12 0
-49 -13 0
49 12 13 0
-50 48 0
-50 49 0
50 -48 -49 0
-51 39 -10 0
-51 -39 10 0
51 39 10 0
51 -39 -10 0
-52 -11 -6 0
-52 11 6 0
52 -11 6 0
52 11 -6 0
-53 -51 0
-53 -52 0
53 51 52 0
-54 -12 -7 0
-54 12 7 0
54 -12 7 0
54 12 -7 0
-55 -13 -8 0
-55 13 8 0
55 -13 8 0
55 13 -8 0
-56 -54 0
-56 -55 0
56 54 55 0
-57 53 0
-57 56 0
57 -53 -56 0
-58 -50 0
-58 57 0
58 50 -57 0
-59 38 0
-59 -58 0
59 -38 58 0
-60 -14 0
-60 59 0
60 14 -59 0
61 -14 -58 0
62 -38 -61 0
63 6 -39 0
64 7 8 0
65 -63 -64 0
66 50 -65 0
-67 -62 0
-67 -66 0
-68 -15 0
-68 -16 0
-69 -17 0
-69 68 0
-70 -18 0
-70 69 0
-71 -12 0
-71 48 0
71 12 -48 0
-72 -13 0
-72 71 0
72 13 -71 0
-73 -6 0
-73 -7 0
-74 -8 0
-74 73 0
-75 -9 0
-75 74 0
-76 72 0
-76 75 0
-77 70 0
-77 76 0
-78 15 -11 0
-78 -15 -10 0
78 15 11 0
78 -15 10 0
-79 15 -12 0
-79 -15 -11 0
79 15 12 0
79 -15 11 0
-80 -79 78 0
-80 79 -78 0
80 -79 -78 0
80 79 78 0
-81 13 -12 0
-81 -13 12 0
81 13 12 0
81 -13 -12 0
-82 15 -10 0
-82 -15 81 0
82 15 10 0
82 -15 -81 0
-83 16 82 0
-83 -16 80 0
83 16 -82 0
83 -16 -80 0
-84 15 -13 0
-84 -15 -12 0
84 15 13 0
84 -15 12 0
-85 -84 79 0
-85 84 -79 0
85 -84 -79 0
85 84 79 0
-86 16 78 0
-86 -16 85 0
86 16 -78 0
86 -16 -85 0
-87 -86 83 0
-87 86 -83 0
87 -86 -83 0
87 86 83 0
-88 17 86 0
-88 -17 87 0
88 17 -86 0
88 -17 -87 0
-89 16 79 0
-89 -16 82 0
89 16 -79 0
89 -16 -82 0
-90 16 84 0
-90 -16 78 0
90 16 -84 0
90 -16 -78 0
-91 -90 89 0
-91 90 -89 0
91 -90 -89 0
91 90 89 0
-92 17 90 0
-92 -17 91 0
92 17 -90 0
92 -17 -91 0
-93 -92 88 0
-93 92 -88 0
93 -92 -88 0
93 92 88 0
-94 18 92 0
-94 -18 93 0
94 18 -92 0
94 -18 -93 0
-95 -94 -9 0
-95 94 9 0
-96 -89 83 0
-96 89 -83 0
96 -89 -83 0
96 89 83 0
-97 96 -90 0
-97 -96 90 0
97 96 90 0
97 -96 -90 0
-98 17 83 0
-98 -17 97 0
98 17 -83 0
98 -17 -97 0
-99 -89 86 0
-99 89 -86 0
99 -89 -86 0
99 89 86 0
-100 17 89 0
-100 -17 99 0
100 17 -89 0
100 -17 -99 0
-101 -100 98 0
-101 100 -98 0
101 -100 -98 0
101 100 98 0
-102 18 100 0
-102 -18 101 0
102 18 -100 0
102 -18 -101 0
-103 -102 -8 0
-103 102 8 0
-104 -100 88 0
-104 100 -88 0
104 -100 -88 0
104 100 88 0
-105 104 -92 0
-105 -104 92 0
105 104 92 0
105 -104 -92 0
-106 18 88 0
-106 -18 105 0
106 18 -88 0
106 -18 -105 0
-107 -106 -7 0
-107 106 7 0
-108 98 -88 0
-108 -98 88 0
108 98 88 0
108 -98 -88 0
-109 108 -100 0
-109 -108 100 0
109 108 100 0
109 -108 -100 0
-110 18 98 0
-110 -18 109 0
110 18 -98 0
110 -18 -109 0
-111 -110 -6 0
-111 110 6 0
-112 15 -14 0
-112 -15 14 0
113 -15 -16 0
114 -17 -113 0
115 -18 -114 0
-116 -72 0
-116 -115 0
-117 112 0
-117 116 0
-118 111 0
-118 117 0
-119 107 0
-119 118 0
-120 103 0
-120 119 0
-121 95 0
-121 120 0
122 77 121 0
-123 67 0
-123 -122 0
-124 1 0
-124 123 0
-125 -40 -23 0
-125 40 23 0
-126 1 0
-126 125 0
-127 -41 -24 0
-127 41 24 0
-128 126 0
-128 127 0
-129 -42 -25 0
-129 42 25 0
-130 128 0
-130 129 0
-131 -43 -26 0
-131 43 26 0
-132 130 0
-132 131 0
-133 -44 -27 0
-133 44 27 0
-134 132 0
-134 133 0
-135 -45 -28 0
-135 45 28 0
-136 134 0
-136 135 0
-137 -46 -29 0
-137 46 29 0
-138 136 0
-138 137 0
-139 -47 -30 0
-139 47 30 0
-140 138 0
-140 139 0
-141 60 -31 0
-141 -60 31 0
-142 140 0
-142 141 0
-143 -32 -1 0
-143 32 1 0
-144 142 0
-144 143 0
-145 -33 -1 0
-145 33 1 0
-146 144 0
-146 145 0
-147 -34 -1 0
-147 34 1 0
-148 146 0
-148 147 0
-149 -35 -1 0
-149 35 1 0
-150 148 0
-150 149 0
-151 -19 0
-151 -20 0
-152 -21 0
-152 -22 0
-153 151 0
-153 152 0
-154 -27 0
-154 -28 0
154 27 28 0
155 29 30 0
156 -154 -155 0
-157 -26 25 0
-157 26 -25 0
157 -26 -25 0
157 26 25 0
158 157 27 0
158 -157 -27 0
159 -28 23 0
159 28 -23 0
-160 -158 0
-160 -159 0
161 -29 24 0
161 29 -24 0
162 -30 25 0
162 30 -25 0
-163 -161 0
-163 -162 0
-164 160 0
-164 163 0
-165 -156 0
-165 164 0
-166 31 0
-166 165 0
-167 153 0
-167 166 0
-168 -23 0
-168 157 0
-169 -24 0
-169 -25 0
-170 168 0
-170 169 0
-171 -156 0
-171 170 0
172 167 171 0
173 32 33 0
174 34 -173 0
175 35 -174 0
-176 -29 0
-176 154 0
176 29 -154 0
-177 -30 0
-177 176 0
177 30 -176 0
178 23 24 0
179 25 -178 0
180 26 -179 0
181 -177 -180 0
182 -175 -181 0
-183 32 -28 0
-183 -32 -27 0
183 32 28 0
183 -32 27 0
-184 32 -29 0
-184 -32 -28 0
184 32 29 0
184 -32 28 0
-185 -184 183 0
-185 184 -183 0
185 -184 -183 0
185 184 183 0
-186 30 -29 0
-186 -30 29 0
186 30 29 0
186 -30 -29 0
-187 32 -27 0
-187 -32 186 0
187 32 27 0
187 -32 -186 0
-188 33 187 0
-188 -33 185 0
188 33 -187 0
188 -33 -185 0
-189 32 -30 0
-189 -32 -29 0
189 32 30 0
189 -32 29 0
-190 -189 184 0
-190 189 -184 0
190 -189 -184 0
190 189 184 0
-191 33 183 0
-191 -33 190 0
191 33 -183 0
191 -33 -190 0
-192 -191 188 0
-192 191 -188 0
192 -191 -188 0
192 191 188 0
-193 34 191 0
-193 -34 192 0
193 34 -191 0
193 -34 -192 0
-194 33 184 0
-194 -33 187 0
194 33 -184 0
194 -33 -187 0
-195 33 189 0
-195 -33 183 0
195 33 -189 0
195 -33 -183 0
-196 -195 194 0
-196 195 -194 0
196 -195 -194 0
196 195 194 0
-197 34 195 0
-197 -34 196 0
197 34 -195 0
197 -34 -196 0
-198 -197 193 0
-198 197 -193 0
198 -197 -193 0
198 197 193 0
-199 35 197 0
-199 -35 198 0
199 35 -197 0
199 -35 -198 0
200 -199 26 0
200 199 -26 0
-201 -194 188 0
-201 194 -188 0
201 -194 -188 0
201 194 188 0
-202 201 -195 0
-202 -201 195 0
202 201 195 0
202 -201 -195 0
-203 34 188 0
-203 -34 202 0
203 34 -188 0
203 -34 -202 0
-204 -194 191 0
-204 194 -191 0
204 -194 -191 0
204 194 191 0
-205 34 194 0
-205 -34 204 0
205 34 -194 0
205 -34 -204 0
-206 -205 203 0
-206 205 -203 0
206 -205 -203 0
206 205 203 0
-207 35 205 0
-207 -35 206 0
207 35 -205 0
207 -35 -206 0
208 -207 25 0
208 207 -25 0
-209 -205 193 0
-209 205 -193 0
209 -205 -193 0
209 205 193 0
-210 209 -197 0
-210 -209 197 0
210 209 197 0
210 -209 -197 0
-211 35 193 0
-211 -35 210 0
211 35 -193 0
211 -35 -210 0
212 -211 24 0
212 211 -24 0
-213 203 -193 0
-213 -203 193 0
213 203 193 0
213 -203 -193 0
-214 213 -205 0
-214 -213 205 0
214 213 205 0
214 -213 -205 0
-215 35 203 0
-215 -35 214 0
215 35 -203 0
215 -35 -214 0
216 -215 23 0
216 215 -23 0
217 32 31 0
217 -32 -31 0
-218 32 0
-218 33 0
-219 34 0
-219 218 0
-220 35 0
-220 219 0
221 177 220 0
222 -217 -221 0
223 -216 -222 0
224 -212 -223 0
225 -208 -224 0
226 -200 -225 0
-227 -182 0
-227 -226 0
228 -172 227 0
229 -1 -228 0
-230 1 0
-230 150 0
-231 1 0
-231 230 0
-232 124 0
-232 231 0
-233 -229 0
-233 232 0
233 0
