p cnf 267 554
1 0
-44 -2 0
-44 -3 0
44 2 3 0
-45 -4 0
-45 44 0
45 4 -44 0
-46 -45 -7 0
-46 45 -2 0
46 -45 7 0
46 45 2 0
-47 -45 -5 0
-47 45 -3 0
47 -45 5 0
47 45 3 0
-48 -45 -6 0
-48 45 -4 0
48 -45 6 0
48 45 4 0
-49 -45 -8 0
-49 45 -2 0
49 -45 8 0
49 45 2 0
-50 -45 -9 0
-50 45 -3 0
50 -45 9 0
50 45 3 0
-51 -45 -10 0
-51 45 -4 0
51 -45 10 0
51 45 4 0
-52 -8 0
-52 -9 0
52 8 9 0
-53 -10 0
-53 52 0
53 10 -52 0
-54 8 -7 0
-54 -8 7 0
54 8 7 0
54 -8 -7 0
-55 9 -5 0
-55 -9 5 0
55 9 5 0
55 -9 -5 0
-56 54 0
-56 55 0
56 -54 -55 0
-57 10 -6 0
-57 -10 6 0
57 10 6 0
57 -10 -6 0
-58 56 0
-58 57 0
58 -56 -57 0
-59 -53 0
-59 58 0
59 53 -58 0
-60 -11 0
-60 45 0
60 11 -45 0
-61 -59 0
-61 60 0
61 59 -60 0
62 -11 -45 0
63 -59 -62 0
64 5 7 0
65 6 -64 0
66 53 -65 0
-67 -63 0
-67 -66 0
-68 -12 0
-68 -13 0
-69 -14 0
-69 68 0
-70 -15 0
-70 69 0
-71 -5 0
-71 -6 0
-72 -7 0
-72 71 0
-73 53 0
-73 72 0
-74 70 0
-74 73 0
-75 12 -8 0
-75 -12 -10 0
75 12 8 0
75 -12 10 0
-76 12 -10 0
-76 -12 -9 0
76 12 10 0
76 -12 9 0
-77 13 76 0
-77 -13 75 0
77 13 -76 0
77 -13 -75 0
-78 12 -9 0
-78 -12 -8 0
78 12 9 0
78 -12 8 0
-79 13 75 0
-79 -13 78 0
79 13 -75 0
79 -13 -78 0
-80 14 79 0
-80 -14 77 0
80 14 -79 0
80 -14 -77 0
-81 13 78 0
-81 -13 76 0
81 13 -78 0
81 -13 -76 0
-82 14 77 0
-82 -14 81 0
82 14 -77 0
82 -14 -81 0
-83 15 82 0
-83 -15 80 0
83 15 -82 0
83 -15 -80 0
-84 -83 -7 0
-84 83 7 0
-85 14 81 0
-85 -14 79 0
85 14 -81 0
85 -14 -79 0
-86 15 85 0
-86 -15 82 0
86 15 -85 0
86 -15 -82 0
-87 -86 -6 0
-87 86 6 0
-88 15 80 0
-88 -15 85 0
88 15 -80 0
88 -15 -85 0
-89 -88 -5 0
-89 88 5 0
-90 12 -11 0
-90 -12 11 0
-91 9 -8 0
-91 -9 8 0
91 9 8 0
91 -9 -8 0
-92 10 -8 0
-92 -10 8 0
92 10 8 0
92 -10 -8 0
-93 91 0
-93 92 0
93 -91 -92 0
-94 -14 0
-94 -15 0
-95 -13 0
-95 94 0
-96 -93 0
-96 95 0
-97 -93 -13 0
-97 93 13 0
-98 94 0
-98 97 0
-99 -12 0
-99 98 0
100 96 99 0
-101 -53 0
-101 -100 0
-102 90 0
-102 101 0
-103 89 0
-103 102 0
-104 87 0
-104 103 0
-105 84 0
-105 104 0
106 74 105 0
-107 67 0
-107 -106 0
-108 1 0
-108 107 0
-109 -46 -19 0
-109 46 19 0
-110 1 0
-110 109 0
-111 -47 -20 0
-111 47 20 0
-112 110 0
-112 111 0
-113 -48 -21 0
-113 48 21 0
-114 112 0
-114 113 0
-115 -49 -22 0
-115 49 22 0
-116 114 0
-116 115 0
-117 -50 -23 0
-117 50 23 0
-118 116 0
-118 117 0
-119 -51 -24 0
-119 51 24 0
-120 118 0
-120 119 0
-121 61 -25 0
-121 -61 25 0
-122 120 0
-122 121 0
-123 -53 0
-123 54 0
123 53 -54 0
-124 55 0
-124 123 0
124 -55 -123 0
-125 57 0
-125 124 0
125 -57 -124 0
-126 45 0
-126 -53 0
126 -45 53 0
-127 -125 0
-127 126 0
127 125 -126 0
-128 -12 0
-128 127 0
128 12 -127 0
-129 128 -26 0
-129 -128 26 0
-130 122 0
-130 129 0
-131 -13 12 0
-131 13 -12 0
131 -13 -12 0
131 13 12 0
-132 127 0
-132 -131 0
132 -127 131 0
-133 132 -27 0
-133 -132 27 0
-134 130 0
-134 133 0
-135 12 0
-135 13 0
135 -12 -13 0
-136 135 -14 0
-136 -135 14 0
136 135 14 0
136 -135 -14 0
-137 127 0
-137 -136 0
137 -127 136 0
-138 137 -28 0
-138 -137 28 0
-139 134 0
-139 138 0
-140 14 0
-140 135 0
140 -14 -135 0
-141 140 -15 0
-141 -140 15 0
141 140 15 0
141 -140 -15 0
-142 127 0
-142 -141 0
142 -127 141 0
-143 142 -29 0
-143 -142 29 0
-144 139 0
-144 143 0
-145 -22 0
-145 -23 0
145 22 23 0
-146 -24 0
-146 145 0
146 24 -145 0
147 22 21 0
147 -22 -21 0
148 23 19 0
148 -23 -19 0
149 -147 -148 0
150 24 20 0
150 -24 -20 0
151 -149 -150 0
152 146 -151 0
153 16 17 0
154 18 -153 0
155 -25 -154 0
156 -152 -155 0
157 19 21 0
158 20 -157 0
159 146 -158 0
-160 -156 0
-160 -159 0
-161 -26 0
-161 -27 0
-162 -28 0
-162 161 0
-163 -29 0
-163 162 0
-164 -19 0
-164 -20 0
-165 -21 0
-165 164 0
-166 146 0
-166 165 0
-167 163 0
-167 166 0
-168 26 -22 0
-168 -26 -24 0
168 26 22 0
168 -26 24 0
-169 26 -24 0
-169 -26 -23 0
169 26 24 0
169 -26 23 0
-170 27 169 0
-170 -27 168 0
170 27 -169 0
170 -27 -168 0
-171 26 -23 0
-171 -26 -22 0
171 26 23 0
171 -26 22 0
-172 27 168 0
-172 -27 171 0
172 27 -168 0
172 -27 -171 0
-173 28 172 0
-173 -28 170 0
173 28 -172 0
173 -28 -170 0
-174 27 171 0
-174 -27 169 0
174 27 -171 0
174 -27 -169 0
-175 28 170 0
-175 -28 174 0
175 28 -170 0
175 -28 -174 0
-176 29 175 0
-176 -29 173 0
176 29 -175 0
176 -29 -173 0
-177 -176 -21 0
-177 176 21 0
-178 28 174 0
-178 -28 172 0
178 28 -174 0
178 -28 -172 0
-179 29 178 0
-179 -29 175 0
179 29 -178 0
179 -29 -175 0
-180 -179 -20 0
-180 179 20 0
-181 29 173 0
-181 -29 178 0
181 29 -173 0
181 -29 -178 0
-182 -181 -19 0
-182 181 19 0
-183 26 -25 0
-183 -26 25 0
-184 23 -22 0
-184 -23 22 0
184 23 22 0
184 -23 -22 0
-185 24 -22 0
-185 -24 22 0
185 24 22 0
185 -24 -22 0
-186 184 0
-186 185 0
186 -184 -185 0
-187 -28 0
-187 -29 0
-188 -27 0
-188 187 0
-189 -186 0
-189 188 0
-190 -186 -27 0
-190 186 27 0
-191 187 0
-191 190 0
-192 -26 0
-192 191 0
193 189 192 0
-194 -146 0
-194 -193 0
-195 183 0
-195 194 0
-196 182 0
-196 195 0
-197 180 0
-197 196 0
-198 177 0
-198 197 0
199 167 198 0
-200 160 0
-200 -199 0
-201 1 0
-201 200 0
-202 -36 0
-202 -37 0
202 36 37 0
-203 -38 0
-203 202 0
203 38 -202 0
204 36 35 0
204 -36 -35 0
205 37 33 0
205 -37 -33 0
206 -204 -205 0
207 38 34 0
207 -38 -34 0
208 -206 -207 0
209 203 -208 0
210 30 31 0
211 32 -210 0
212 -39 -211 0
213 -209 -212 0
214 33 35 0
215 34 -214 0
216 203 -215 0
-217 -213 0
-217 -216 0
-218 -40 0
-218 -41 0
-219 -42 0
-219 218 0
-220 -43 0
-220 219 0
-221 -33 0
-221 -34 0
-222 -35 0
-222 221 0
-223 203 0
-223 222 0
-224 220 0
-224 223 0
-225 40 -36 0
-225 -40 -38 0
225 40 36 0
225 -40 38 0
-226 40 -38 0
-226 -40 -37 0
226 40 38 0
226 -40 37 0
-227 41 226 0
-227 -41 225 0
227 41 -226 0
227 -41 -225 0
-228 40 -37 0
-228 -40 -36 0
228 40 37 0
228 -40 36 0
-229 41 225 0
-229 -41 228 0
229 41 -225 0
229 -41 -228 0
-230 42 229 0
-230 -42 227 0
230 42 -229 0
230 -42 -227 0
-231 41 228 0
-231 -41 226 0
231 41 -228 0
231 -41 -226 0
-232 42 227 0
-232 -42 231 0
232 42 -227 0
232 -42 -231 0
-233 43 232 0
-233 -43 230 0
233 43 -232 0
233 -43 -230 0
-234 -233 -35 0
-234 233 35 0
-235 42 231 0
-235 -42 229 0
235 42 -231 0
235 -42 -229 0
-236 43 235 0
-236 -43 232 0
236 43 -235 0
236 -43 -232 0
-237 -236 -34 0
-237 236 34 0
-238 43 230 0
-238 -43 235 0
238 43 -230 0
238 -43 -235 0
-239 -238 -33 0
-239 238 33 0
-240 40 -39 0
-240 -40 39 0
-241 37 -36 0
-241 -37 36 0
241 37 36 0
241 -37 -36 0
-242 38 -36 0
-242 -38 36 0
242 38 36 0
242 -38 -36 0
-243 241 0
-243 242 0
243 -241 -242 0
-244 -42 0
-244 -43 0
-245 -41 0
-245 244 0
-246 -243 0
-246 245 0
-247 -243 -41 0
-247 243 41 0
-248 244 0
-248 247 0
-249 -40 0
-249 248 0
250 246 249 0
-251 -203 0
-251 -250 0
-252 240 0
-252 251 0
-253 239 0
-253 252 0
-254 237 0
-254 253 0
-255 234 0
-255 254 0
256 224 255 0
-257 217 0
-257 -256 0
-258 1 0
-258 257 0
-259 1 0
-259 1 0
-260 108 0
-260 259 0
-261 1 0
-261 260 0
-262 201 0
-262 261 0
-263 1 0
-263 262 0
-264 258 0
-264 263 0
-265 144 0
-265 264 0
-266 1 0
-266 265 0
-267 -1 0
-267 266 0
267 0
