p cnf 195 419
1 0
-30 -2 0
-30 -3 0
30 2 3 0
-31 -4 0
-31 30 0
31 4 -30 0
-32 -31 -7 0
-32 31 -2 0
32 -31 7 0
32 31 2 0
-33 -31 -5 0
-33 31 -3 0
33 -31 5 0
33 31 3 0
-34 -31 -6 0
-34 31 -4 0
34 -31 6 0
34 31 4 0
-35 -31 -8 0
-35 31 -2 0
35 -31 8 0
35 31 2 0
-36 -31 -9 0
-36 31 -3 0
36 -31 9 0
36 31 3 0
-37 -31 -10 0
-37 31 -4 0
37 -31 10 0
37 31 4 0
-38 -8 0
-38 -9 0
38 8 9 0
-39 -10 0
-39 38 0
39 10 -38 0
-40 8 -7 0
-40 -8 7 0
40 8 7 0
40 -8 -7 0
-41 9 -5 0
-41 -9 5 0
41 9 5 0
41 -9 -5 0
-42 40 0
-42 41 0
42 -40 -41 0
-43 10 -6 0
-43 -10 6 0
43 10 6 0
43 -10 -6 0
-44 42 0
-44 43 0
44 -42 -43 0
-45 -39 0
-45 44 0
45 39 -44 0
-46 -11 0
-46 31 0
46 11 -31 0
-47 -45 0
-47 46 0
47 45 -46 0
48 -11 -31 0
49 -45 -48 0
50 5 7 0
51 6 -50 0
52 39 -51 0
-53 -49 0
-53 -52 0
-54 -12 0
-54 -13 0
-55 -14 0
-55 54 0
-56 -15 0
-56 55 0
-57 -5 0
-57 -6 0
-58 -7 0
-58 57 0
-59 39 0
-59 58 0
-60 56 0
-60 59 0
-61 12 -8 0
-61 -12 -10 0
61 12 8 0
61 -12 10 0
-62 12 -10 0
-62 -12 -9 0
62 12 10 0
62 -12 9 0
-63 13 62 0
-63 -13 61 0
63 13 -62 0
63 -13 -61 0
-64 12 -9 0
-64 -12 -8 0
64 12 9 0
64 -12 8 0
-65 13 61 0
-65 -13 64 0
65 13 -61 0
65 -13 -64 0
-66 14 65 0
-66 -14 63 0
66 14 -65 0
66 -14 -63 0
-67 13 64 0
-67 -13 62 0
67 13 -64 0
67 -13 -62 0
-68 14 63 0
-68 -14 67 0
68 14 -63 0
68 -14 -67 0
-69 15 68 0
-69 -15 66 0
69 15 -68 0
69 -15 -66 0
-70 -69 -7 0
-70 69 7 0
-71 14 67 0
-71 -14 65 0
71 14 -67 0
71 -14 -65 0
-72 15 71 0
-72 -15 68 0
72 15 -71 0
72 -15 -68 0
-73 -72 -6 0
-73 72 6 0
-74 15 66 0
-74 -15 71 0
74 15 -66 0
74 -15 -71 0
-75 -74 -5 0
-75 74 5 0
-76 12 -11 0
-76 -12 11 0
-77 9 -8 0
-77 -9 8 0
77 9 8 0
77 -9 -8 0
-78 10 -8 0
-78 -10 8 0
78 10 8 0
78 -10 -8 0
-79 77 0
-79 78 0
79 -77 -78 0
-80 -14 0
-80 -15 0
-81 -13 0
-81 80 0
-82 -79 0
-82 81 0
-83 -79 -13 0
-83 79 13 0
-84 80 0
-84 83 0
-85 -12 0
-85 84 0
86 82 85 0
-87 -39 0
-87 -86 0
-88 76 0
-88 87 0
-89 75 0
-89 88 0
-90 73 0
-90 89 0
-91 70 0
-91 90 0
92 60 91 0
-93 53 0
-93 -92 0
-94 1 0
-94 93 0
-95 -32 -19 0
-95 32 19 0
-96 1 0
-96 95 0
-97 -33 -20 0
-97 33 20 0
-98 96 0
-98 97 0
-99 -34 -21 0
-99 34 21 0
-100 98 0
-100 99 0
-101 -35 -22 0
-101 35 22 0
-102 100 0
-102 101 0
-103 -36 -23 0
-103 36 23 0
-104 102 0
-104 103 0
-105 -37 -24 0
-105 37 24 0
-106 104 0
-106 105 0
-107 47 -25 0
-107 -47 25 0
-108 106 0
-108 107 0
-109 -39 0
-109 40 0
109 39 -40 0
-110 41 0
-110 109 0
110 -41 -109 0
-111 43 0
-111 110 0
111 -43 -110 0
-112 31 0
-112 -39 0
112 -31 39 0
-113 -111 0
-113 112 0
113 111 -112 0
-114 -12 0
-114 113 0
114 12 -113 0
-115 114 -26 0
-115 -114 26 0
-116 108 0
-116 115 0
-117 -13 12 0
-117 13 -12 0
117 -13 -12 0
117 13 12 0
-118 113 0
-118 -117 0
118 -113 117 0
-119 118 -27 0
-119 -118 27 0
-120 116 0
-120 119 0
-121 12 0
-121 13 0
121 -12 -13 0
-122 121 -14 0
-122 -121 14 0
122 121 14 0
122 -121 -14 0
-123 113 0
-123 -122 0
123 -113 122 0
-124 123 -28 0
-124 -123 28 0
-125 120 0
-125 124 0
-126 14 0
-126 121 0
126 -14 -121 0
-127 126 -15 0
-127 -126 15 0
127 126 15 0
127 -126 -15 0
-128 113 0
-128 -127 0
128 -113 127 0
-129 128 -29 0
-129 -128 29 0
-130 125 0
-130 129 0
-131 -22 0
-131 -23 0
131 22 23 0
-132 -24 0
-132 131 0
132 24 -131 0
133 22 21 0
133 -22 -21 0
134 23 19 0
134 -23 -19 0
135 -133 -134 0
136 24 20 0
136 -24 -20 0
137 -135 -136 0
138 132 -137 0
139 16 17 0
140 18 -139 0
141 -25 -140 0
142 -138 -141 0
143 19 21 0
144 20 -143 0
145 132 -144 0
-146 -142 0
-146 -145 0
-147 -26 0
-147 -27 0
-148 -28 0
-148 147 0
-149 -29 0
-149 148 0
-150 -19 0
-150 -20 0
-151 -21 0
-151 150 0
-152 132 0
-152 151 0
-153 149 0
-153 152 0
-154 26 -22 0
-154 -26 -24 0
154 26 22 0
154 -26 24 0
-155 26 -24 0
-155 -26 -23 0
155 26 24 0
155 -26 23 0
-156 27 155 0
-156 -27 154 0
156 27 -155 0
156 -27 -154 0
-157 26 -23 0
-157 -26 -22 0
157 26 23 0
157 -26 22 0
-158 27 154 0
-158 -27 157 0
158 27 -154 0
158 -27 -157 0
-159 28 158 0
-159 -28 156 0
159 28 -158 0
159 -28 -156 0
-160 27 157 0
-160 -27 155 0
160 27 -157 0
160 -27 -155 0
-161 28 156 0
-161 -28 160 0
161 28 -156 0
161 -28 -160 0
-162 29 161 0
-162 -29 159 0
162 29 -161 0
162 -29 -159 0
-163 -162 -21 0
-163 162 21 0
-164 28 160 0
-164 -28 158 0
164 28 -160 0
164 -28 -158 0
-165 29 164 0
-165 -29 161 0
165 29 -164 0
165 -29 -161 0
-166 -165 -20 0
-166 165 20 0
-167 29 159 0
-167 -29 164 0
167 29 -159 0
167 -29 -164 0
-168 -167 -19 0
-168 167 19 0
-169 26 -25 0
-169 -26 25 0
-170 23 -22 0
-170 -23 22 0
170 23 22 0
170 -23 -22 0
-171 24 -22 0
-171 -24 22 0
171 24 22 0
171 -24 -22 0
-172 170 0
-172 171 0
172 -170 -171 0
-173 -28 0
-173 -29 0
-174 -27 0
-174 173 0
-175 -172 0
-175 174 0
-176 -172 -27 0
-176 172 27 0
-177 173 0
-177 176 0
-178 -26 0
-178 177 0
179 175 178 0
-180 -132 0
-180 -179 0
-181 169 0
-181 180 0
-182 168 0
-182 181 0
-183 166 0
-183 182 0
-184 163 0
-184 183 0
185 153 184 0
-186 146 0
-186 -185 0
-187 1 0
-187 186 0
-188 1 0
-188 1 0
-189 1 0
-189 188 0
-190 94 0
-190 189 0
-191 1 0
-191 190 0
-192 1 0
-192 191 0
-193 187 0
-193 192 0
-194 130 0
-194 193 0
-195 -1 0
-195 194 0
195 0
