p cnf 179 371
1 0
-30 -2 0
-30 -3 0
30 2 3 0
-31 -4 0
-31 30 0
31 4 -30 0
-32 -31 -7 0
-32 31 -2 0
32 -31 7 0
32 31 2 0
-33 -31 -5 0
-33 31 -3 0
33 -31 5 0
33 31 3 0
-34 -31 -6 0
-34 31 -4 0
34 -31 6 0
34 31 4 0
-35 -31 -8 0
-35 31 -2 0
35 -31 8 0
35 31 2 0
-36 -31 -9 0
-36 31 -3 0
36 -31 9 0
36 31 3 0
-37 -31 -10 0
-37 31 -4 0
37 -31 10 0
37 31 4 0
-38 -8 0
-38 -9 0
38 8 9 0
-39 -10 0
-39 38 0
39 10 -38 0
-40 8 -7 0
-40 -8 7 0
40 8 7 0
40 -8 -7 0
-41 9 -5 0
-41 -9 5 0
41 9 5 0
41 -9 -5 0
-42 40 0
-42 41 0
42 -40 -41 0
-43 10 -6 0
-43 -10 6 0
43 10 6 0
43 -10 -6 0
-44 42 0
-44 43 0
44 -42 -43 0
-45 -39 0
-45 44 0
45 39 -44 0
-46 -11 0
-46 31 0
46 11 -31 0
-47 -45 0
-47 46 0
47 45 -46 0
48 -11 -31 0
49 -45 -48 0
50 5 7 0
51 6 -50 0
52 39 -51 0
-53 -49 0
-53 -52 0
-54 -12 0
-54 -13 0
-55 -14 0
-55 54 0
-56 -15 0
-56 55 0
-57 -5 0
-57 -6 0
-58 -7 0
-58 57 0
-59 39 0
-59 58 0
-60 56 0
-60 59 0
-61 12 -8 0
-61 -12 -10 0
61 12 8 0
61 -12 10 0
-62 12 -10 0
-62 -12 -9 0
62 12 10 0
62 -12 9 0
-63 13 62 0
-63 -13 61 0
63 13 -62 0
63 -13 -61 0
-64 12 -9 0
-64 -12 -8 0
64 12 9 0
64 -12 8 0
-65 13 61 0
-65 -13 64 0
65 13 -61 0
65 -13 -64 0
-66 14 65 0
-66 -14 63 0
66 14 -65 0
66 -14 -63 0
-67 13 64 0
-67 -13 62 0
67 13 -64 0
67 -13 -62 0
-68 14 63 0
-68 -14 67 0
68 14 -63 0
68 -14 -67 0
-69 15 68 0
-69 -15 66 0
69 15 -68 0
69 -15 -66 0
-70 -69 -7 0
-70 69 7 0
-71 14 67 0
-71 -14 65 0
71 14 -67 0
71 -14 -65 0
-72 15 71 0
-72 -15 68 0
72 15 -71 0
72 -15 -68 0
-73 -72 -6 0
-73 72 6 0
-74 15 66 0
-74 -15 71 0
74 15 -66 0
74 -15 -71 0
-75 -74 -5 0
-75 74 5 0
-76 12 -11 0
-76 -12 11 0
-77 -14 0
-77 15 0
-78 -13 0
-78 77 0
-79 -12 0
-79 78 0
80 -15 79 0
-81 -39 0
-81 -80 0
-82 76 0
-82 81 0
-83 75 0
-83 82 0
-84 73 0
-84 83 0
-85 70 0
-85 84 0
86 60 85 0
-87 53 0
-87 -86 0
-88 1 0
-88 87 0
-89 -32 -19 0
-89 32 19 0
-90 1 0
-90 89 0
-91 -33 -20 0
-91 33 20 0
-92 90 0
-92 91 0
-93 -34 -21 0
-93 34 21 0
-94 92 0
-94 93 0
-95 -35 -22 0
-95 35 22 0
-96 94 0
-96 95 0
-97 -36 -23 0
-97 36 23 0
-98 96 0
-98 97 0
-99 -37 -24 0
-99 37 24 0
-100 98 0
-100 99 0
-101 47 -25 0
-101 -47 25 0
-102 100 0
-102 101 0
-103 -39 0
-103 40 0
103 39 -40 0
-104 41 0
-104 103 0
104 -41 -103 0
-105 43 0
-105 104 0
105 -43 -104 0
-106 31 0
-106 -39 0
106 -31 39 0
-107 -105 0
-107 106 0
107 105 -106 0
-108 -12 0
-108 107 0
108 12 -107 0
-109 108 -26 0
-109 -108 26 0
-110 102 0
-110 109 0
-111 -13 12 0
-111 13 -12 0
111 -13 -12 0
111 13 12 0
-112 107 0
-112 -111 0
112 -107 111 0
-113 112 -27 0
-113 -112 27 0
-114 110 0
-114 113 0
-115 12 0
-115 13 0
115 -12 -13 0
-116 115 -14 0
-116 -115 14 0
116 115 14 0
116 -115 -14 0
-117 107 0
-117 -116 0
117 -107 116 0
-118 117 -28 0
-118 -117 28 0
-119 114 0
-119 118 0
-120 14 0
-120 115 0
120 -14 -115 0
-121 120 -15 0
-121 -120 15 0
121 120 15 0
121 -120 -15 0
-122 107 0
-122 -121 0
122 -107 121 0
-123 122 -29 0
-123 -122 29 0
-124 119 0
-124 123 0
-125 -22 0
-125 -23 0
125 22 23 0
-126 -24 0
-126 125 0
126 24 -125 0
-127 22 -21 0
-127 -22 21 0
-128 23 -19 0
-128 -23 19 0
-129 127 0
-129 128 0
-130 24 -20 0
-130 -24 20 0
-131 129 0
-131 130 0
-132 -126 0
-132 131 0
-133 -16 0
-133 -17 0
-134 -18 0
-134 133 0
-135 25 0
-135 134 0
-136 132 0
-136 135 0
-137 -19 0
-137 -21 0
-138 -20 0
-138 137 0
-139 -126 0
-139 138 0
140 136 139 0
141 26 27 0
142 28 -141 0
143 29 -142 0
144 19 20 0
145 21 -144 0
146 -126 -145 0
147 -143 -146 0
-148 26 -22 0
-148 -26 -24 0
148 26 22 0
148 -26 24 0
-149 26 -24 0
-149 -26 -23 0
149 26 24 0
149 -26 23 0
-150 27 149 0
-150 -27 148 0
150 27 -149 0
150 -27 -148 0
-151 26 -23 0
-151 -26 -22 0
151 26 23 0
151 -26 22 0
-152 27 148 0
-152 -27 151 0
152 27 -148 0
152 -27 -151 0
-153 28 152 0
-153 -28 150 0
153 28 -152 0
153 -28 -150 0
-154 27 151 0
-154 -27 149 0
154 27 -151 0
154 -27 -149 0
-155 28 150 0
-155 -28 154 0
155 28 -150 0
155 -28 -154 0
-156 29 155 0
-156 -29 153 0
156 29 -155 0
156 -29 -153 0
157 -156 21 0
157 156 -21 0
-158 28 154 0
-158 -28 152 0
158 28 -154 0
158 -28 -152 0
-159 29 158 0
-159 -29 155 0
159 29 -158 0
159 -29 -155 0
160 -159 20 0
160 159 -20 0
-161 29 153 0
-161 -29 158 0
161 29 -153 0
161 -29 -158 0
162 -161 19 0
162 161 -19 0
163 26 25 0
163 -26 -25 0
164 28 -29 0
165 27 -164 0
166 26 -165 0
-167 29 0
-167 -166 0
168 126 167 0
169 -163 -168 0
170 -162 -169 0
171 -160 -170 0
172 -157 -171 0
-173 -147 0
-173 -172 0
174 -140 173 0
175 -1 -174 0
-176 1 0
-176 124 0
-177 1 0
-177 176 0
-178 88 0
-178 177 0
-179 -175 0
-179 178 0
179 0
