p cnf 987 1821
1 0
-11 -4 0
-11 5 0
-12 -6 0
-12 11 0
-13 -7 0
-13 12 0
-14 -8 0
-14 13 0
-15 9 0
-15 14 0
-16 -4 0
-16 5 0
-17 -6 0
-17 16 0
-18 -7 0
-18 17 0
-19 8 0
-19 18 0
-20 9 0
-20 19 0
21 10 20 0
21 -10 15 0
-22 -4 0
-22 5 0
-23 -6 0
-23 22 0
-24 7 0
-24 23 0
-25 8 0
-25 24 0
-26 9 0
-26 25 0
-27 10 0
-27 26 0
28 -21 27 0
-29 -4 0
-29 5 0
-30 6 0
-30 29 0
-31 7 0
-31 30 0
-32 8 0
-32 31 0
-33 -9 0
-33 32 0
-34 10 0
-34 33 0
35 -28 34 0
-36 -4 0
-36 5 0
-37 6 0
-37 36 0
-38 7 0
-38 37 0
-39 8 0
-39 38 0
-40 9 0
-40 39 0
-41 -10 0
-41 40 0
42 -35 41 0
-43 -3 0
-43 -5 0
-44 -6 0
-44 43 0
-45 -7 0
-45 44 0
-46 -8 0
-46 45 0
-47 9 0
-47 46 0
-48 -10 0
-48 47 0
49 -42 48 0
-50 -3 0
-50 -5 0
-51 -6 0
-51 50 0
-52 -7 0
-52 51 0
-53 8 0
-53 52 0
-54 9 0
-54 53 0
-55 10 0
-55 54 0
56 -49 55 0
-57 -3 0
-57 -5 0
-58 6 0
-58 57 0
-59 7 0
-59 58 0
-60 9 0
-60 59 0
-61 10 0
-61 60 0
62 -56 61 0
-63 -3 0
-63 -5 0
-64 6 0
-64 63 0
-65 7 0
-65 64 0
-66 8 0
-66 65 0
-67 -9 0
-67 66 0
-68 -10 0
-68 67 0
69 -62 68 0
-70 -3 0
-70 -4 0
-71 -5 0
-71 70 0
-72 -7 0
-72 71 0
-73 8 0
-73 72 0
-74 -9 0
-74 73 0
-75 -10 0
-75 74 0
76 -69 75 0
-77 -3 0
-77 -4 0
-78 -5 0
-78 77 0
-79 -6 0
-79 78 0
-80 7 0
-80 79 0
-81 -9 0
-81 80 0
-82 10 0
-82 81 0
83 -76 82 0
-84 -3 0
-84 -4 0
-85 -5 0
-85 84 0
-86 -6 0
-86 85 0
-87 7 0
-87 86 0
-88 -8 0
-88 87 0
-89 10 0
-89 88 0
90 -83 89 0
-91 -3 0
-91 -4 0
-92 -5 0
-92 91 0
-93 6 0
-93 92 0
-94 -8 0
-94 93 0
-95 9 0
-95 94 0
-96 10 0
-96 95 0
97 -90 96 0
-98 -3 0
-98 -4 0
-99 -5 0
-99 98 0
-100 6 0
-100 99 0
-101 -7 0
-101 100 0
-102 -8 0
-102 101 0
-103 10 0
-103 102 0
104 -97 103 0
-105 -3 0
-105 -4 0
-106 -5 0
-106 105 0
-107 6 0
-107 106 0
-108 -7 0
-108 107 0
-109 8 0
-109 108 0
-110 -10 0
-110 109 0
111 -104 110 0
-112 -3 0
-112 -4 0
-113 -5 0
-113 112 0
-114 6 0
-114 113 0
-115 7 0
-115 114 0
-116 -9 0
-116 115 0
-117 -10 0
-117 116 0
118 -111 117 0
-119 -3 0
-119 -4 0
-120 5 0
-120 119 0
-121 7 0
-121 120 0
-122 -8 0
-122 121 0
-123 9 0
-123 122 0
-124 -10 0
-124 123 0
125 -118 124 0
-126 -3 0
-126 -4 0
-127 5 0
-127 126 0
-128 6 0
-128 127 0
-129 -7 0
-129 128 0
-130 8 0
-130 129 0
-131 10 0
-131 130 0
132 -125 131 0
-133 -3 0
-133 -4 0
-134 5 0
-134 133 0
-135 6 0
-135 134 0
-136 7 0
-136 135 0
-137 -9 0
-137 136 0
-138 10 0
-138 137 0
139 -132 138 0
-140 -3 0
-140 -4 0
-141 5 0
-141 140 0
-142 6 0
-142 141 0
-143 7 0
-143 142 0
-144 9 0
-144 143 0
-145 -10 0
-145 144 0
146 -139 145 0
-147 -3 0
-147 4 0
-148 -6 0
-148 147 0
-149 -7 0
-149 148 0
-150 8 0
-150 149 0
-151 9 0
-151 150 0
-152 10 0
-152 151 0
153 -146 152 0
-154 -3 0
-154 4 0
-155 -6 0
-155 154 0
-156 7 0
-156 155 0
-157 8 0
-157 156 0
-158 9 0
-158 157 0
-159 -10 0
-159 158 0
160 -153 159 0
-161 -3 0
-161 4 0
-162 6 0
-162 161 0
-163 7 0
-163 162 0
-164 9 0
-164 163 0
-165 10 0
-165 164 0
166 -160 165 0
-167 -3 0
-167 4 0
-168 6 0
-168 167 0
-169 7 0
-169 168 0
-170 8 0
-170 169 0
-171 -9 0
-171 170 0
-172 -10 0
-172 171 0
173 -166 172 0
-174 -3 0
-174 4 0
-175 5 0
-175 174 0
-176 7 0
-176 175 0
-177 -8 0
-177 176 0
-178 9 0
-178 177 0
-179 10 0
-179 178 0
180 -173 179 0
-181 -3 0
-181 4 0
-182 5 0
-182 181 0
-183 6 0
-183 182 0
-184 8 0
-184 183 0
-185 -9 0
-185 184 0
-186 -10 0
-186 185 0
187 -180 186 0
-188 3 0
-188 5 0
-189 -6 0
-189 188 0
-190 7 0
-190 189 0
-191 8 0
-191 190 0
-192 9 0
-192 191 0
-193 10 0
-193 192 0
194 -187 193 0
-195 3 0
-195 -4 0
-196 5 0
-196 195 0
-197 -7 0
-197 196 0
-198 -8 0
-198 197 0
-199 9 0
-199 198 0
-200 10 0
-200 199 0
201 -194 200 0
-202 3 0
-202 -4 0
-203 5 0
-203 202 0
-204 -6 0
-204 203 0
-205 -7 0
-205 204 0
-206 8 0
-206 205 0
-207 -10 0
-207 206 0
208 -201 207 0
-209 3 0
-209 -4 0
-210 5 0
-210 209 0
-211 -6 0
-211 210 0
-212 7 0
-212 211 0
-213 10 0
-213 212 0
214 -208 213 0
-215 3 0
-215 -4 0
-216 5 0
-216 215 0
-217 6 0
-217 216 0
-218 -8 0
-218 217 0
-219 -9 0
-219 218 0
-220 -10 0
-220 219 0
221 -214 220 0
-222 3 0
-222 -4 0
-223 5 0
-223 222 0
-224 6 0
-224 223 0
-225 8 0
-225 224 0
-226 9 0
-226 225 0
-227 -10 0
-227 226 0
228 -221 227 0
-229 3 0
-229 4 0
-230 -5 0
-230 229 0
-231 6 0
-231 230 0
-232 -7 0
-232 231 0
-233 8 0
-233 232 0
-234 10 0
-234 233 0
235 -228 234 0
-236 3 0
-236 4 0
-237 -5 0
-237 236 0
-238 6 0
-238 237 0
-239 7 0
-239 238 0
-240 8 0
-240 239 0
-241 -9 0
-241 240 0
-242 10 0
-242 241 0
243 -235 242 0
-244 -2 0
-244 -4 0
-245 -6 0
-245 244 0
-246 -7 0
-246 245 0
-247 8 0
-247 246 0
-248 9 0
-248 247 0
-249 -10 0
-249 248 0
250 -243 249 0
-251 -2 0
-251 -4 0
-252 6 0
-252 251 0
-253 8 0
-253 252 0
-254 -9 0
-254 253 0
-255 10 0
-255 254 0
256 -250 255 0
-257 -2 0
-257 -4 0
-258 6 0
-258 257 0
-259 7 0
-259 258 0
-260 9 0
-260 259 0
-261 -10 0
-261 260 0
262 -256 261 0
-263 -2 0
-263 -4 0
-264 -5 0
-264 263 0
-265 -7 0
-265 264 0
-266 8 0
-266 265 0
-267 -9 0
-267 266 0
-268 10 0
-268 267 0
269 -262 268 0
-270 -2 0
-270 -4 0
-271 -5 0
-271 270 0
-272 7 0
-272 271 0
-273 -8 0
-273 272 0
-274 9 0
-274 273 0
-275 -10 0
-275 274 0
276 -269 275 0
-277 -2 0
-277 -4 0
-278 -5 0
-278 277 0
-279 -6 0
-279 278 0
-280 7 0
-280 279 0
-281 8 0
-281 280 0
-282 -9 0
-282 281 0
-283 -10 0
-283 282 0
284 -276 283 0
-285 -2 0
-285 -4 0
-286 -5 0
-286 285 0
-287 6 0
-287 286 0
-288 -8 0
-288 287 0
-289 9 0
-289 288 0
-290 -10 0
-290 289 0
291 -284 290 0
-292 -2 0
-292 -4 0
-293 -5 0
-293 292 0
-294 6 0
-294 293 0
-295 -7 0
-295 294 0
-296 8 0
-296 295 0
-297 10 0
-297 296 0
298 -291 297 0
-299 -2 0
-299 -4 0
-300 -5 0
-300 299 0
-301 6 0
-301 300 0
-302 7 0
-302 301 0
-303 -9 0
-303 302 0
-304 10 0
-304 303 0
305 -298 304 0
-306 -2 0
-306 4 0
-307 5 0
-307 306 0
-308 -6 0
-308 307 0
-309 -7 0
-309 308 0
-310 8 0
-310 309 0
-311 9 0
-311 310 0
-312 10 0
-312 311 0
313 -305 312 0
-314 -2 0
-314 -3 0
-315 -5 0
-315 314 0
-316 7 0
-316 315 0
-317 -8 0
-317 316 0
-318 -9 0
-318 317 0
-319 -10 0
-319 318 0
320 -313 319 0
-321 -2 0
-321 -3 0
-322 -5 0
-322 321 0
-323 7 0
-323 322 0
-324 -8 0
-324 323 0
-325 9 0
-325 324 0
-326 10 0
-326 325 0
327 -320 326 0
-328 -2 0
-328 -3 0
-329 -5 0
-329 328 0
-330 -6 0
-330 329 0
-331 8 0
-331 330 0
-332 -9 0
-332 331 0
-333 10 0
-333 332 0
334 -327 333 0
-335 -2 0
-335 -3 0
-336 -5 0
-336 335 0
-337 -6 0
-337 336 0
-338 -7 0
-338 337 0
-339 8 0
-339 338 0
-340 10 0
-340 339 0
341 -334 340 0
-342 -2 0
-342 -3 0
-343 -5 0
-343 342 0
-344 6 0
-344 343 0
-345 -8 0
-345 344 0
-346 9 0
-346 345 0
-347 10 0
-347 346 0
348 -341 347 0
-349 -2 0
-349 -3 0
-350 -5 0
-350 349 0
-351 6 0
-351 350 0
-352 -7 0
-352 351 0
-353 -8 0
-353 352 0
-354 10 0
-354 353 0
355 -348 354 0
-356 -2 0
-356 -3 0
-357 -5 0
-357 356 0
-358 6 0
-358 357 0
-359 -7 0
-359 358 0
-360 8 0
-360 359 0
-361 -10 0
-361 360 0
362 -355 361 0
-363 -2 0
-363 -3 0
-364 -5 0
-364 363 0
-365 6 0
-365 364 0
-366 7 0
-366 365 0
-367 -9 0
-367 366 0
-368 -10 0
-368 367 0
369 -362 368 0
-370 -2 0
-370 -3 0
-371 5 0
-371 370 0
-372 -6 0
-372 371 0
-373 -7 0
-373 372 0
-374 -8 0
-374 373 0
-375 9 0
-375 374 0
-376 10 0
-376 375 0
377 -369 376 0
-378 -2 0
-378 -3 0
-379 -4 0
-379 378 0
-380 -7 0
-380 379 0
-381 8 0
-381 380 0
-382 -9 0
-382 381 0
-383 10 0
-383 382 0
384 -377 383 0
-385 -2 0
-385 -3 0
-386 -4 0
-386 385 0
-387 -6 0
-387 386 0
-388 7 0
-388 387 0
-389 -9 0
-389 388 0
-390 -10 0
-390 389 0
391 -384 390 0
-392 -2 0
-392 -3 0
-393 -4 0
-393 392 0
-394 -6 0
-394 393 0
-395 7 0
-395 394 0
-396 -8 0
-396 395 0
-397 -10 0
-397 396 0
398 -391 397 0
-399 -2 0
-399 -3 0
-400 -4 0
-400 399 0
-401 6 0
-401 400 0
-402 -9 0
-402 401 0
-403 10 0
-403 402 0
404 -398 403 0
-405 -2 0
-405 -3 0
-406 -4 0
-406 405 0
-407 6 0
-407 406 0
-408 -8 0
-408 407 0
-409 9 0
-409 408 0
-410 -10 0
-410 409 0
411 -404 410 0
-412 -2 0
-412 -3 0
-413 -4 0
-413 412 0
-414 -5 0
-414 413 0
-415 9 0
-415 414 0
416 -411 415 0
-417 -2 0
-417 -3 0
-418 -4 0
-418 417 0
-419 -5 0
-419 418 0
-420 8 0
-420 419 0
421 -416 420 0
-422 -2 0
-422 -3 0
-423 -4 0
-423 422 0
-424 -5 0
-424 423 0
-425 7 0
-425 424 0
426 -421 425 0
-427 -2 0
-427 -3 0
-428 -4 0
-428 427 0
-429 -5 0
-429 428 0
-430 6 0
-430 429 0
431 -426 430 0
-432 -2 0
-432 -3 0
-433 4 0
-433 432 0
-434 6 0
-434 433 0
-435 -8 0
-435 434 0
-436 9 0
-436 435 0
-437 10 0
-437 436 0
438 -431 437 0
-439 -2 0
-439 -3 0
-440 4 0
-440 439 0
-441 6 0
-441 440 0
-442 -7 0
-442 441 0
-443 8 0
-443 442 0
-444 -10 0
-444 443 0
445 -438 444 0
-446 -2 0
-446 -3 0
-447 4 0
-447 446 0
-448 6 0
-448 447 0
-449 7 0
-449 448 0
-450 -9 0
-450 449 0
-451 -10 0
-451 450 0
452 -445 451 0
-453 -2 0
-453 -3 0
-454 4 0
-454 453 0
-455 5 0
-455 454 0
-456 -8 0
-456 455 0
-457 9 0
-457 456 0
-458 10 0
-458 457 0
459 -452 458 0
-460 -2 0
-460 -3 0
-461 4 0
-461 460 0
-462 5 0
-462 461 0
-463 -7 0
-463 462 0
-464 8 0
-464 463 0
-465 -9 0
-465 464 0
-466 -10 0
-466 465 0
467 -459 466 0
-468 -2 0
-468 -3 0
-469 4 0
-469 468 0
-470 5 0
-470 469 0
-471 -6 0
-471 470 0
-472 -7 0
-472 471 0
-473 9 0
-473 472 0
-474 10 0
-474 473 0
475 -467 474 0
-476 -2 0
-476 -3 0
-477 4 0
-477 476 0
-478 5 0
-478 477 0
-479 -6 0
-479 478 0
-480 7 0
-480 479 0
-481 -9 0
-481 480 0
-482 10 0
-482 481 0
483 -475 482 0
-484 -2 0
-484 -3 0
-485 4 0
-485 484 0
-486 5 0
-486 485 0
-487 6 0
-487 486 0
-488 -9 0
-488 487 0
-489 -10 0
-489 488 0
490 -483 489 0
-491 -2 0
-491 3 0
-492 -6 0
-492 491 0
-493 7 0
-493 492 0
-494 8 0
-494 493 0
-495 9 0
-495 494 0
-496 10 0
-496 495 0
497 -490 496 0
-498 -2 0
-498 3 0
-499 6 0
-499 498 0
-500 7 0
-500 499 0
-501 9 0
-501 500 0
-502 -10 0
-502 501 0
503 -497 502 0
-504 -2 0
-504 3 0
-505 6 0
-505 504 0
-506 7 0
-506 505 0
-507 8 0
-507 506 0
-508 -9 0
-508 507 0
-509 10 0
-509 508 0
510 -503 509 0
-511 -2 0
-511 3 0
-512 -5 0
-512 511 0
-513 7 0
-513 512 0
-514 -8 0
-514 513 0
-515 9 0
-515 514 0
-516 -10 0
-516 515 0
517 -510 516 0
-518 -2 0
-518 3 0
-519 -5 0
-519 518 0
-520 -6 0
-520 519 0
-521 -7 0
-521 520 0
-522 -8 0
-522 521 0
-523 9 0
-523 522 0
-524 10 0
-524 523 0
525 -517 524 0
-526 -2 0
-526 3 0
-527 -5 0
-527 526 0
-528 -6 0
-528 527 0
-529 -7 0
-529 528 0
-530 8 0
-530 529 0
-531 9 0
-531 530 0
-532 -10 0
-532 531 0
533 -525 532 0
-534 -2 0
-534 3 0
-535 -5 0
-535 534 0
-536 -6 0
-536 535 0
-537 7 0
-537 536 0
-538 -8 0
-538 537 0
-539 -9 0
-539 538 0
-540 10 0
-540 539 0
541 -533 540 0
-542 -2 0
-542 3 0
-543 -5 0
-543 542 0
-544 6 0
-544 543 0
-545 8 0
-545 544 0
-546 -9 0
-546 545 0
-547 10 0
-547 546 0
548 -541 547 0
-549 -2 0
-549 3 0
-550 -5 0
-550 549 0
-551 6 0
-551 550 0
-552 -7 0
-552 551 0
-553 -8 0
-553 552 0
-554 -9 0
-554 553 0
-555 -10 0
-555 554 0
556 -548 555 0
-557 -2 0
-557 3 0
-558 -5 0
-558 557 0
-559 6 0
-559 558 0
-560 -7 0
-560 559 0
-561 8 0
-561 560 0
-562 10 0
-562 561 0
563 -556 562 0
-564 -2 0
-564 3 0
-565 -4 0
-565 564 0
-566 5 0
-566 565 0
-567 6 0
-567 566 0
-568 7 0
-568 567 0
-569 -8 0
-569 568 0
-570 -10 0
-570 569 0
571 -563 570 0
-572 -2 0
-572 3 0
-573 4 0
-573 572 0
-574 6 0
-574 573 0
-575 -7 0
-575 574 0
-576 8 0
-576 575 0
-577 10 0
-577 576 0
578 -571 577 0
-579 -2 0
-579 3 0
-580 4 0
-580 579 0
-581 -5 0
-581 580 0
-582 -6 0
-582 581 0
-583 -7 0
-583 582 0
-584 8 0
-584 583 0
-585 -10 0
-585 584 0
586 -578 585 0
-587 -2 0
-587 3 0
-588 4 0
-588 587 0
-589 -5 0
-589 588 0
-590 -6 0
-590 589 0
-591 7 0
-591 590 0
-592 -9 0
-592 591 0
-593 10 0
-593 592 0
594 -586 593 0
-595 -2 0
-595 3 0
-596 4 0
-596 595 0
-597 -5 0
-597 596 0
-598 6 0
-598 597 0
-599 -7 0
-599 598 0
-600 9 0
-600 599 0
-601 10 0
-601 600 0
602 -594 601 0
-603 -2 0
-603 3 0
-604 4 0
-604 603 0
-605 -5 0
-605 604 0
-606 6 0
-606 605 0
-607 7 0
-607 606 0
-608 -8 0
-608 607 0
-609 -10 0
-609 608 0
610 -602 609 0
-611 -2 0
-611 3 0
-612 4 0
-612 611 0
-613 5 0
-613 612 0
-614 -8 0
-614 613 0
-615 9 0
-615 614 0
-616 -10 0
-616 615 0
617 -610 616 0
-618 -2 0
-618 3 0
-619 4 0
-619 618 0
-620 5 0
-620 619 0
-621 -7 0
-621 620 0
-622 8 0
-622 621 0
-623 10 0
-623 622 0
624 -617 623 0
-625 -2 0
-625 3 0
-626 4 0
-626 625 0
-627 5 0
-627 626 0
-628 -6 0
-628 627 0
-629 7 0
-629 628 0
-630 -9 0
-630 629 0
-631 -10 0
-631 630 0
632 -624 631 0
-633 -2 0
-633 3 0
-634 4 0
-634 633 0
-635 5 0
-635 634 0
-636 6 0
-636 635 0
-637 -9 0
-637 636 0
-638 10 0
-638 637 0
639 -632 638 0
-640 2 0
-640 -5 0
-641 -6 0
-641 640 0
-642 -7 0
-642 641 0
-643 -8 0
-643 642 0
-644 9 0
-644 643 0
-645 -10 0
-645 644 0
646 -639 645 0
-647 2 0
-647 -5 0
-648 -6 0
-648 647 0
-649 -7 0
-649 648 0
-650 8 0
-650 649 0
-651 9 0
-651 650 0
-652 10 0
-652 651 0
653 -646 652 0
-654 2 0
-654 -5 0
-655 -6 0
-655 654 0
-656 7 0
-656 655 0
-657 8 0
-657 656 0
-658 9 0
-658 657 0
-659 -10 0
-659 658 0
660 -653 659 0
-661 2 0
-661 -5 0
-662 6 0
-662 661 0
-663 -7 0
-663 662 0
-664 -8 0
-664 663 0
-665 -9 0
-665 664 0
-666 10 0
-666 665 0
667 -660 666 0
-668 2 0
-668 -5 0
-669 6 0
-669 668 0
-670 7 0
-670 669 0
-671 8 0
-671 670 0
-672 9 0
-672 671 0
-673 10 0
-673 672 0
674 -667 673 0
-675 2 0
-675 -4 0
-676 -5 0
-676 675 0
-677 7 0
-677 676 0
-678 -8 0
-678 677 0
-679 9 0
-679 678 0
-680 10 0
-680 679 0
681 -674 680 0
-682 2 0
-682 -4 0
-683 -5 0
-683 682 0
-684 6 0
-684 683 0
-685 -7 0
-685 684 0
-686 8 0
-686 685 0
-687 -10 0
-687 686 0
688 -681 687 0
-689 2 0
-689 -4 0
-690 -5 0
-690 689 0
-691 6 0
-691 690 0
-692 7 0
-692 691 0
-693 9 0
-693 692 0
-694 10 0
-694 693 0
695 -688 694 0
-696 2 0
-696 -4 0
-697 -5 0
-697 696 0
-698 6 0
-698 697 0
-699 7 0
-699 698 0
-700 8 0
-700 699 0
-701 -9 0
-701 700 0
-702 -10 0
-702 701 0
703 -695 702 0
-704 2 0
-704 -4 0
-705 5 0
-705 704 0
-706 -7 0
-706 705 0
-707 -8 0
-707 706 0
-708 9 0
-708 707 0
-709 10 0
-709 708 0
710 -703 709 0
-711 2 0
-711 -4 0
-712 5 0
-712 711 0
-713 -6 0
-713 712 0
-714 -7 0
-714 713 0
-715 8 0
-715 714 0
-716 -10 0
-716 715 0
717 -710 716 0
-718 2 0
-718 -4 0
-719 5 0
-719 718 0
-720 -6 0
-720 719 0
-721 7 0
-721 720 0
-722 -8 0
-722 721 0
-723 -9 0
-723 722 0
-724 10 0
-724 723 0
725 -717 724 0
-726 2 0
-726 -4 0
-727 5 0
-727 726 0
-728 6 0
-728 727 0
-729 -7 0
-729 728 0
-730 -8 0
-730 729 0
-731 -9 0
-731 730 0
-732 -10 0
-732 731 0
733 -725 732 0
-734 2 0
-734 4 0
-735 -5 0
-735 734 0
-736 -7 0
-736 735 0
-737 -8 0
-737 736 0
-738 9 0
-738 737 0
-739 -10 0
-739 738 0
740 -733 739 0
-741 2 0
-741 4 0
-742 -5 0
-742 741 0
-743 -7 0
-743 742 0
-744 8 0
-744 743 0
-745 10 0
-745 744 0
746 -740 745 0
-747 2 0
-747 4 0
-748 -5 0
-748 747 0
-749 -6 0
-749 748 0
-750 7 0
-750 749 0
-751 -10 0
-751 750 0
752 -746 751 0
-753 2 0
-753 4 0
-754 -5 0
-754 753 0
-755 6 0
-755 754 0
-756 -8 0
-756 755 0
-757 -9 0
-757 756 0
-758 10 0
-758 757 0
759 -752 758 0
-760 2 0
-760 4 0
-761 -5 0
-761 760 0
-762 6 0
-762 761 0
-763 8 0
-763 762 0
-764 9 0
-764 763 0
-765 10 0
-765 764 0
766 -759 765 0
-767 2 0
-767 4 0
-768 -5 0
-768 767 0
-769 6 0
-769 768 0
-770 -7 0
-770 769 0
-771 -9 0
-771 770 0
-772 10 0
-772 771 0
773 -766 772 0
-774 2 0
-774 4 0
-775 5 0
-775 774 0
-776 7 0
-776 775 0
-777 -8 0
-777 776 0
-778 9 0
-778 777 0
-779 10 0
-779 778 0
780 -773 779 0
-781 2 0
-781 4 0
-782 5 0
-782 781 0
-783 6 0
-783 782 0
-784 8 0
-784 783 0
-785 -9 0
-785 784 0
-786 -10 0
-786 785 0
787 -780 786 0
-788 2 0
-788 4 0
-789 5 0
-789 788 0
-790 6 0
-790 789 0
-791 7 0
-791 790 0
-792 9 0
-792 791 0
-793 10 0
-793 792 0
794 -787 793 0
-795 2 0
-795 -3 0
-796 5 0
-796 795 0
-797 6 0
-797 796 0
-798 -7 0
-798 797 0
-799 8 0
-799 798 0
-800 9 0
-800 799 0
-801 10 0
-801 800 0
802 -794 801 0
-803 2 0
-803 -3 0
-804 -4 0
-804 803 0
-805 5 0
-805 804 0
-806 -6 0
-806 805 0
-807 8 0
-807 806 0
-808 -9 0
-808 807 0
-809 -10 0
-809 808 0
810 -802 809 0
-811 2 0
-811 -3 0
-812 -4 0
-812 811 0
-813 5 0
-813 812 0
-814 6 0
-814 813 0
-815 -7 0
-815 814 0
-816 9 0
-816 815 0
-817 10 0
-817 816 0
818 -810 817 0
-819 2 0
-819 -3 0
-820 4 0
-820 819 0
-821 -7 0
-821 820 0
-822 -8 0
-822 821 0
-823 9 0
-823 822 0
-824 -10 0
-824 823 0
825 -818 824 0
-826 2 0
-826 -3 0
-827 4 0
-827 826 0
-828 -7 0
-828 827 0
-829 8 0
-829 828 0
-830 9 0
-830 829 0
-831 10 0
-831 830 0
832 -825 831 0
-833 2 0
-833 -3 0
-834 4 0
-834 833 0
-835 7 0
-835 834 0
-836 8 0
-836 835 0
-837 -9 0
-837 836 0
-838 -10 0
-838 837 0
839 -832 838 0
-840 2 0
-840 -3 0
-841 4 0
-841 840 0
-842 -6 0
-842 841 0
-843 -7 0
-843 842 0
-844 8 0
-844 843 0
-845 10 0
-845 844 0
846 -839 845 0
-847 2 0
-847 -3 0
-848 4 0
-848 847 0
-849 -6 0
-849 848 0
-850 7 0
-850 849 0
-851 -9 0
-851 850 0
-852 -10 0
-852 851 0
853 -846 852 0
-854 2 0
-854 -3 0
-855 4 0
-855 854 0
-856 6 0
-856 855 0
-857 -8 0
-857 856 0
-858 -9 0
-858 857 0
-859 10 0
-859 858 0
860 -853 859 0
-861 2 0
-861 -3 0
-862 4 0
-862 861 0
-863 6 0
-863 862 0
-864 7 0
-864 863 0
-865 -8 0
-865 864 0
-866 10 0
-866 865 0
867 -860 866 0
-868 2 0
-868 3 0
-869 -5 0
-869 868 0
-870 -7 0
-870 869 0
-871 -8 0
-871 870 0
-872 9 0
-872 871 0
-873 -10 0
-873 872 0
874 -867 873 0
-875 2 0
-875 3 0
-876 -5 0
-876 875 0
-877 -6 0
-877 876 0
-878 -7 0
-878 877 0
-879 8 0
-879 878 0
-880 10 0
-880 879 0
881 -874 880 0
-882 2 0
-882 3 0
-883 -5 0
-883 882 0
-884 -6 0
-884 883 0
-885 7 0
-885 884 0
-886 -8 0
-886 885 0
-887 -9 0
-887 886 0
-888 -10 0
-888 887 0
889 -881 888 0
-890 2 0
-890 3 0
-891 5 0
-891 890 0
-892 -8 0
-892 891 0
-893 9 0
-893 892 0
-894 10 0
-894 893 0
895 -889 894 0
-896 2 0
-896 3 0
-897 5 0
-897 896 0
-898 -7 0
-898 897 0
-899 8 0
-899 898 0
-900 -10 0
-900 899 0
901 -895 900 0
-902 2 0
-902 3 0
-903 5 0
-903 902 0
-904 -6 0
-904 903 0
-905 7 0
-905 904 0
-906 10 0
-906 905 0
907 -901 906 0
-908 2 0
-908 3 0
-909 5 0
-909 908 0
-910 6 0
-910 909 0
-911 -7 0
-911 910 0
-912 -9 0
-912 911 0
-913 -10 0
-913 912 0
914 -907 913 0
-915 2 0
-915 3 0
-916 -4 0
-916 915 0
-917 6 0
-917 916 0
-918 -7 0
-918 917 0
-919 8 0
-919 918 0
-920 -10 0
-920 919 0
921 -914 920 0
-922 2 0
-922 3 0
-923 -4 0
-923 922 0
-924 -5 0
-924 923 0
-925 -6 0
-925 924 0
-926 8 0
-926 925 0
-927 -9 0
-927 926 0
-928 10 0
-928 927 0
929 -921 928 0
-930 2 0
-930 3 0
-931 -4 0
-931 930 0
-932 -5 0
-932 931 0
-933 6 0
-933 932 0
-934 -7 0
-934 933 0
-935 9 0
-935 934 0
-936 -10 0
-936 935 0
937 -929 936 0
-938 2 0
-938 3 0
-939 -4 0
-939 938 0
-940 -5 0
-940 939 0
-941 6 0
-941 940 0
-942 7 0
-942 941 0
-943 -8 0
-943 942 0
-944 10 0
-944 943 0
945 -937 944 0
-946 2 0
-946 3 0
-947 4 0
-947 946 0
-948 -5 0
-948 947 0
-949 -8 0
-949 948 0
-950 9 0
-950 949 0
-951 -10 0
-951 950 0
952 -945 951 0
-953 2 0
-953 3 0
-954 4 0
-954 953 0
-955 -5 0
-955 954 0
-956 6 0
-956 955 0
-957 -9 0
-957 956 0
-958 10 0
-958 957 0
959 -952 958 0
-960 2 0
-960 3 0
-961 4 0
-961 960 0
-962 5 0
-962 961 0
-963 6 0
-963 962 0
-964 -9 0
-964 963 0
-965 -10 0
-965 964 0
966 -959 965 0
967 -1 -966 0
-968 2 1 0
-968 -2 -1 0
-969 1 0
-969 968 0
-970 3 1 0
-970 -3 -1 0
-971 969 0
-971 970 0
-972 4 1 0
-972 -4 -1 0
-973 971 0
-973 972 0
-974 5 1 0
-974 -5 -1 0
-975 973 0
-975 974 0
-976 6 1 0
-976 -6 -1 0
-977 975 0
-977 976 0
-978 7 1 0
-978 -7 -1 0
-979 977 0
-979 978 0
-980 8 1 0
-980 -8 -1 0
-981 979 0
-981 980 0
-982 9 1 0
-982 -9 -1 0
-983 981 0
-983 982 0
-984 10 1 0
-984 -10 -1 0
-985 983 0
-985 984 0
-986 1 0
-986 985 0
-987 -967 0
-987 986 0
987 0
