p cnf 2955 3423
1 0
-33 -2 0
-33 -3 0
33 2 3 0
-34 -4 0
-34 -5 0
34 4 5 0
-35 33 0
-35 34 0
35 -33 -34 0
-36 -9 8 0
-36 9 -8 0
36 -9 -8 0
36 9 8 0
-37 -35 36 0
-37 35 -2 0
37 -35 -36 0
37 35 2 0
-38 -35 -6 0
-38 35 -3 0
38 -35 6 0
38 35 3 0
-39 -35 -7 0
-39 35 -4 0
39 -35 7 0
39 35 4 0
-40 -35 -8 0
-40 35 -5 0
40 -35 8 0
40 35 5 0
-41 -35 -10 0
-41 35 -2 0
41 -35 10 0
41 35 2 0
-42 -35 -11 0
-42 35 -3 0
42 -35 11 0
42 35 3 0
-43 -35 -12 0
-43 35 -4 0
43 -35 12 0
43 35 4 0
-44 -35 -13 0
-44 35 -5 0
44 -35 13 0
44 35 5 0
-45 -10 0
-45 -11 0
45 10 11 0
-46 -12 0
-46 -13 0
46 12 13 0
-47 45 0
-47 46 0
47 -45 -46 0
-48 36 -10 0
-48 -36 10 0
48 36 10 0
48 -36 -10 0
-49 -11 -6 0
-49 11 6 0
49 -11 6 0
49 11 -6 0
-50 -48 0
-50 -49 0
50 48 49 0
-51 -12 -7 0
-51 12 7 0
51 -12 7 0
51 12 -7 0
-52 -13 -8 0
-52 13 8 0
52 -13 8 0
52 13 -8 0
-53 -51 0
-53 -52 0
53 51 52 0
-54 50 0
-54 53 0
54 -50 -53 0
-55 -47 0
-55 54 0
55 47 -54 0
-56 35 0
-56 -55 0
56 -35 55 0
-57 -14 0
-57 56 0
57 14 -56 0
58 8 -9 0
59 10 -58 0
60 11 -59 0
61 12 -60 0
62 -13 -61 0
63 8 -9 0
64 10 -63 0
65 11 -64 0
66 -12 -65 0
67 -13 -66 0
-68 14 -67 0
-68 -14 -62 0
69 8 -9 0
70 10 -69 0
71 -11 -70 0
72 -12 -71 0
73 -13 -72 0
74 -14 -73 0
-75 68 0
-75 -74 0
76 8 -9 0
77 -10 -76 0
78 -11 -77 0
79 -12 -78 0
80 13 -79 0
81 -14 -80 0
-82 75 0
-82 -81 0
83 8 -9 0
84 -10 -83 0
85 -11 -84 0
86 -12 -85 0
87 -13 -86 0
88 14 -87 0
-89 82 0
-89 -88 0
90 7 9 0
91 10 -90 0
92 11 -91 0
93 12 -92 0
94 -13 -93 0
95 14 -94 0
-96 89 0
-96 -95 0
97 7 9 0
98 10 -97 0
99 11 -98 0
100 -12 -99 0
101 -13 -100 0
102 -14 -101 0
-103 96 0
-103 -102 0
104 7 9 0
105 -10 -104 0
106 -11 -105 0
107 -13 -106 0
108 -14 -107 0
-109 103 0
-109 -108 0
110 7 9 0
111 -10 -110 0
112 -11 -111 0
113 -12 -112 0
114 13 -113 0
115 14 -114 0
-116 109 0
-116 -115 0
117 7 8 0
118 9 -117 0
119 11 -118 0
120 -12 -119 0
121 13 -120 0
122 14 -121 0
-123 116 0
-123 -122 0
124 7 8 0
125 9 -124 0
126 10 -125 0
127 -11 -126 0
128 13 -127 0
129 -14 -128 0
-130 123 0
-130 -129 0
131 7 8 0
132 9 -131 0
133 10 -132 0
134 -11 -133 0
135 12 -134 0
136 -14 -135 0
-137 130 0
-137 -136 0
138 7 8 0
139 9 -138 0
140 -10 -139 0
141 12 -140 0
142 -13 -141 0
143 -14 -142 0
-144 137 0
-144 -143 0
145 7 8 0
146 9 -145 0
147 -10 -146 0
148 11 -147 0
149 12 -148 0
150 -14 -149 0
-151 144 0
-151 -150 0
152 7 8 0
153 9 -152 0
154 -10 -153 0
155 11 -154 0
156 -12 -155 0
157 14 -156 0
-158 151 0
-158 -157 0
159 7 8 0
160 9 -159 0
161 -10 -160 0
162 -11 -161 0
163 13 -162 0
164 14 -163 0
-165 158 0
-165 -164 0
166 7 8 0
167 -9 -166 0
168 -11 -167 0
169 12 -168 0
170 -13 -169 0
171 14 -170 0
-172 165 0
-172 -171 0
173 7 8 0
174 -9 -173 0
175 -10 -174 0
176 11 -175 0
177 -12 -176 0
178 -14 -177 0
-179 172 0
-179 -178 0
180 7 8 0
181 -9 -180 0
182 -10 -181 0
183 -11 -182 0
184 13 -183 0
185 -14 -184 0
-186 179 0
-186 -185 0
187 7 8 0
188 -9 -187 0
189 -10 -188 0
190 -11 -189 0
191 -13 -190 0
192 14 -191 0
-193 186 0
-193 -192 0
194 7 -8 0
195 10 -194 0
196 11 -195 0
197 -12 -196 0
198 -13 -197 0
199 -14 -198 0
-200 193 0
-200 -199 0
201 7 -8 0
202 10 -201 0
203 -11 -202 0
204 -12 -203 0
205 -13 -204 0
206 14 -205 0
-207 200 0
-207 -206 0
208 7 -8 0
209 -10 -208 0
210 -11 -209 0
211 -13 -210 0
212 -14 -211 0
-213 207 0
-213 -212 0
214 7 -8 0
215 -10 -214 0
216 -11 -215 0
217 -12 -216 0
218 13 -217 0
219 14 -218 0
-220 213 0
-220 -219 0
221 7 -8 0
222 -9 -221 0
223 -11 -222 0
224 12 -223 0
225 -13 -224 0
226 -14 -225 0
-227 220 0
-227 -226 0
228 7 -8 0
229 -9 -228 0
230 -10 -229 0
231 -12 -230 0
232 13 -231 0
233 14 -232 0
-234 227 0
-234 -233 0
235 -7 -9 0
236 10 -235 0
237 -11 -236 0
238 -12 -237 0
239 -13 -238 0
240 -14 -239 0
-241 234 0
-241 -240 0
242 -7 8 0
243 -9 -242 0
244 11 -243 0
245 12 -244 0
246 -13 -245 0
247 -14 -246 0
-248 241 0
-248 -247 0
249 -7 8 0
250 -9 -249 0
251 10 -250 0
252 11 -251 0
253 -12 -252 0
254 14 -253 0
-255 248 0
-255 -254 0
256 -7 8 0
257 -9 -256 0
258 10 -257 0
259 -11 -258 0
260 -14 -259 0
-261 255 0
-261 -260 0
262 -7 8 0
263 -9 -262 0
264 -10 -263 0
265 12 -264 0
266 13 -265 0
267 14 -266 0
-268 261 0
-268 -267 0
269 -7 8 0
270 -9 -269 0
271 -10 -270 0
272 -12 -271 0
273 -13 -272 0
274 14 -273 0
-275 268 0
-275 -274 0
276 -7 -8 0
277 9 -276 0
278 -10 -277 0
279 11 -278 0
280 -12 -279 0
281 -14 -280 0
-282 275 0
-282 -281 0
283 -7 -8 0
284 9 -283 0
285 -10 -284 0
286 -11 -285 0
287 -12 -286 0
288 13 -287 0
289 -14 -288 0
-290 282 0
-290 -289 0
291 6 8 0
292 10 -291 0
293 11 -292 0
294 -12 -293 0
295 -13 -294 0
296 14 -295 0
-297 290 0
-297 -296 0
298 6 8 0
299 -10 -298 0
300 -12 -299 0
301 13 -300 0
302 -14 -301 0
-303 297 0
-303 -302 0
304 6 8 0
305 -10 -304 0
306 -11 -305 0
307 -13 -306 0
308 14 -307 0
-309 303 0
-309 -308 0
310 6 8 0
311 9 -310 0
312 11 -311 0
313 -12 -312 0
314 13 -313 0
315 -14 -314 0
-316 309 0
-316 -315 0
317 6 8 0
318 9 -317 0
319 -11 -318 0
320 12 -319 0
321 -13 -320 0
322 14 -321 0
-323 316 0
-323 -322 0
324 6 8 0
325 9 -324 0
326 10 -325 0
327 -11 -326 0
328 -12 -327 0
329 13 -328 0
330 14 -329 0
-331 323 0
-331 -330 0
332 6 8 0
333 9 -332 0
334 -10 -333 0
335 12 -334 0
336 -13 -335 0
337 14 -336 0
-338 331 0
-338 -337 0
339 6 8 0
340 9 -339 0
341 -10 -340 0
342 11 -341 0
343 -12 -342 0
344 -14 -343 0
-345 338 0
-345 -344 0
346 6 8 0
347 9 -346 0
348 -10 -347 0
349 -11 -348 0
350 13 -349 0
351 -14 -350 0
-352 345 0
-352 -351 0
353 6 -8 0
354 -9 -353 0
355 10 -354 0
356 11 -355 0
357 -12 -356 0
358 -13 -357 0
359 -14 -358 0
-360 352 0
-360 -359 0
361 6 7 0
362 9 -361 0
363 -11 -362 0
364 12 -363 0
365 13 -364 0
366 14 -365 0
-367 360 0
-367 -366 0
368 6 7 0
369 9 -368 0
370 -11 -369 0
371 12 -370 0
372 -13 -371 0
373 -14 -372 0
-374 367 0
-374 -373 0
375 6 7 0
376 9 -375 0
377 10 -376 0
378 -12 -377 0
379 13 -378 0
380 -14 -379 0
-381 374 0
-381 -380 0
382 6 7 0
383 9 -382 0
384 10 -383 0
385 11 -384 0
386 -12 -385 0
387 -14 -386 0
-388 381 0
-388 -387 0
389 6 7 0
390 9 -389 0
391 -10 -390 0
392 12 -391 0
393 -13 -392 0
394 -14 -393 0
-395 388 0
-395 -394 0
396 6 7 0
397 9 -396 0
398 -10 -397 0
399 11 -398 0
400 12 -399 0
401 -14 -400 0
-402 395 0
-402 -401 0
403 6 7 0
404 9 -403 0
405 -10 -404 0
406 11 -405 0
407 -12 -406 0
408 14 -407 0
-409 402 0
-409 -408 0
410 6 7 0
411 9 -410 0
412 -10 -411 0
413 -11 -412 0
414 13 -413 0
415 14 -414 0
-416 409 0
-416 -415 0
417 6 7 0
418 -9 -417 0
419 10 -418 0
420 11 -419 0
421 12 -420 0
422 -13 -421 0
423 -14 -422 0
-424 416 0
-424 -423 0
425 6 7 0
426 8 -425 0
427 11 -426 0
428 -12 -427 0
429 13 -428 0
430 -14 -429 0
-431 424 0
-431 -430 0
432 6 7 0
433 8 -432 0
434 10 -433 0
435 -11 -434 0
436 13 -435 0
437 14 -436 0
-438 431 0
-438 -437 0
439 6 7 0
440 8 -439 0
441 10 -440 0
442 -11 -441 0
443 12 -442 0
444 14 -443 0
-445 438 0
-445 -444 0
446 6 7 0
447 8 -446 0
448 -10 -447 0
449 13 -448 0
450 -14 -449 0
-451 445 0
-451 -450 0
452 6 7 0
453 8 -452 0
454 -10 -453 0
455 12 -454 0
456 -13 -455 0
457 14 -456 0
-458 451 0
-458 -457 0
459 6 7 0
460 8 -459 0
461 9 -460 0
462 -13 -461 0
-463 458 0
-463 -462 0
464 6 7 0
465 8 -464 0
466 9 -465 0
467 -12 -466 0
-468 463 0
-468 -467 0
469 6 7 0
470 8 -469 0
471 9 -470 0
472 -11 -471 0
-473 468 0
-473 -472 0
474 6 7 0
475 8 -474 0
476 9 -475 0
477 -10 -476 0
-478 473 0
-478 -477 0
479 6 7 0
480 -8 -479 0
481 -10 -480 0
482 12 -481 0
483 -13 -482 0
484 -14 -483 0
-485 478 0
-485 -484 0
486 6 7 0
487 -8 -486 0
488 -10 -487 0
489 11 -488 0
490 -12 -489 0
491 14 -490 0
-492 485 0
-492 -491 0
493 6 7 0
494 -8 -493 0
495 -10 -494 0
496 -11 -495 0
497 13 -496 0
498 14 -497 0
-499 492 0
-499 -498 0
500 6 7 0
501 -8 -500 0
502 -9 -501 0
503 12 -502 0
504 -13 -503 0
505 -14 -504 0
-506 499 0
-506 -505 0
507 6 7 0
508 -8 -507 0
509 -9 -508 0
510 11 -509 0
511 -12 -510 0
512 13 -511 0
513 14 -512 0
-514 506 0
-514 -513 0
515 6 7 0
516 -8 -515 0
517 -9 -516 0
518 10 -517 0
519 11 -518 0
520 -13 -519 0
521 -14 -520 0
-522 514 0
-522 -521 0
523 6 7 0
524 -8 -523 0
525 -9 -524 0
526 10 -525 0
527 -11 -526 0
528 13 -527 0
529 -14 -528 0
-530 522 0
-530 -529 0
531 6 7 0
532 -8 -531 0
533 -9 -532 0
534 -10 -533 0
535 13 -534 0
536 14 -535 0
-537 530 0
-537 -536 0
538 6 -7 0
539 10 -538 0
540 -11 -539 0
541 -12 -540 0
542 -13 -541 0
543 -14 -542 0
-544 537 0
-544 -543 0
545 6 -7 0
546 -10 -545 0
547 -11 -546 0
548 -13 -547 0
549 14 -548 0
-550 544 0
-550 -549 0
551 6 -7 0
552 -10 -551 0
553 -11 -552 0
554 -12 -553 0
555 13 -554 0
556 -14 -555 0
-557 550 0
-557 -556 0
558 6 -7 0
559 9 -558 0
560 -11 -559 0
561 12 -560 0
562 -13 -561 0
563 14 -562 0
-564 557 0
-564 -563 0
565 6 -7 0
566 9 -565 0
567 10 -566 0
568 11 -567 0
569 12 -568 0
570 -13 -569 0
571 -14 -570 0
-572 564 0
-572 -571 0
573 6 -7 0
574 9 -573 0
575 10 -574 0
576 11 -575 0
577 -12 -576 0
578 -13 -577 0
579 14 -578 0
-580 572 0
-580 -579 0
581 6 -7 0
582 9 -581 0
583 10 -582 0
584 -11 -583 0
585 12 -584 0
586 13 -585 0
587 -14 -586 0
-588 580 0
-588 -587 0
589 6 -7 0
590 9 -589 0
591 -10 -590 0
592 -12 -591 0
593 13 -592 0
594 -14 -593 0
-595 588 0
-595 -594 0
596 6 -7 0
597 9 -596 0
598 -10 -597 0
599 11 -598 0
600 12 -599 0
601 13 -600 0
602 14 -601 0
-603 595 0
-603 -602 0
604 6 -7 0
605 9 -604 0
606 -10 -605 0
607 11 -606 0
608 -12 -607 0
609 -14 -608 0
-610 603 0
-610 -609 0
611 6 -7 0
612 8 -611 0
613 -9 -612 0
614 -10 -613 0
615 -11 -614 0
616 12 -615 0
617 14 -616 0
-618 610 0
-618 -617 0
619 6 -7 0
620 -8 -619 0
621 -10 -620 0
622 11 -621 0
623 -12 -622 0
624 -14 -623 0
-625 618 0
-625 -624 0
626 6 -7 0
627 -8 -626 0
628 9 -627 0
629 10 -628 0
630 11 -629 0
631 -12 -630 0
632 14 -631 0
-633 625 0
-633 -632 0
634 6 -7 0
635 -8 -634 0
636 9 -635 0
637 10 -636 0
638 -11 -637 0
639 13 -638 0
640 -14 -639 0
-641 633 0
-641 -640 0
642 6 -7 0
643 -8 -642 0
644 9 -643 0
645 -10 -644 0
646 11 -645 0
647 -13 -646 0
648 -14 -647 0
-649 641 0
-649 -648 0
650 6 -7 0
651 -8 -650 0
652 9 -651 0
653 -10 -652 0
654 -11 -653 0
655 12 -654 0
656 14 -655 0
-657 649 0
-657 -656 0
658 6 -7 0
659 -8 -658 0
660 -9 -659 0
661 12 -660 0
662 -13 -661 0
663 14 -662 0
-664 657 0
-664 -663 0
665 6 -7 0
666 -8 -665 0
667 -9 -666 0
668 11 -667 0
669 -12 -668 0
670 -14 -669 0
-671 664 0
-671 -670 0
672 6 -7 0
673 -8 -672 0
674 -9 -673 0
675 10 -674 0
676 -11 -675 0
677 13 -676 0
678 14 -677 0
-679 671 0
-679 -678 0
680 6 -7 0
681 -8 -680 0
682 -9 -681 0
683 -10 -682 0
684 13 -683 0
685 -14 -684 0
-686 679 0
-686 -685 0
687 -6 9 0
688 10 -687 0
689 11 -688 0
690 12 -689 0
691 -13 -690 0
692 14 -691 0
-693 686 0
-693 -692 0
694 -6 9 0
695 10 -694 0
696 11 -695 0
697 -12 -696 0
698 -13 -697 0
699 -14 -698 0
-700 693 0
-700 -699 0
701 -6 9 0
702 10 -701 0
703 -11 -702 0
704 -12 -703 0
705 -13 -704 0
706 14 -705 0
-707 700 0
-707 -706 0
708 -6 9 0
709 -10 -708 0
710 11 -709 0
711 12 -710 0
712 13 -711 0
713 -14 -712 0
-714 707 0
-714 -713 0
715 -6 9 0
716 -10 -715 0
717 -11 -716 0
718 -12 -717 0
719 -13 -718 0
720 -14 -719 0
-721 714 0
-721 -720 0
722 -6 8 0
723 9 -722 0
724 -11 -723 0
725 12 -724 0
726 -13 -725 0
727 -14 -726 0
-728 721 0
-728 -727 0
729 -6 8 0
730 9 -729 0
731 -10 -730 0
732 11 -731 0
733 -12 -732 0
734 14 -733 0
-735 728 0
-735 -734 0
736 -6 8 0
737 9 -736 0
738 -10 -737 0
739 -11 -738 0
740 -13 -739 0
741 -14 -740 0
-742 735 0
-742 -741 0
743 -6 8 0
744 9 -743 0
745 -10 -744 0
746 -11 -745 0
747 -12 -746 0
748 13 -747 0
749 14 -748 0
-750 742 0
-750 -749 0
751 -6 8 0
752 -9 -751 0
753 11 -752 0
754 12 -753 0
755 -13 -754 0
756 -14 -755 0
-757 750 0
-757 -756 0
758 -6 8 0
759 -9 -758 0
760 10 -759 0
761 11 -760 0
762 -12 -761 0
763 14 -762 0
-764 757 0
-764 -763 0
765 -6 8 0
766 -9 -765 0
767 10 -766 0
768 -11 -767 0
769 12 -768 0
770 13 -769 0
771 -14 -770 0
-772 764 0
-772 -771 0
773 -6 8 0
774 -9 -773 0
775 -10 -774 0
776 11 -775 0
777 12 -776 0
778 13 -777 0
779 14 -778 0
-780 772 0
-780 -779 0
781 -6 -8 0
782 9 -781 0
783 11 -782 0
784 12 -783 0
785 -13 -784 0
786 14 -785 0
-787 780 0
-787 -786 0
788 -6 -8 0
789 9 -788 0
790 11 -789 0
791 -12 -790 0
792 -14 -791 0
-793 787 0
-793 -792 0
794 -6 -8 0
795 9 -794 0
796 10 -795 0
797 -11 -796 0
798 14 -797 0
-799 793 0
-799 -798 0
800 -6 -8 0
801 9 -800 0
802 -10 -801 0
803 12 -802 0
804 13 -803 0
805 -14 -804 0
-806 799 0
-806 -805 0
807 -6 -8 0
808 9 -807 0
809 -10 -808 0
810 -12 -809 0
811 -13 -810 0
812 -14 -811 0
-813 806 0
-813 -812 0
814 -6 -8 0
815 9 -814 0
816 -10 -815 0
817 11 -816 0
818 13 -817 0
819 -14 -818 0
-820 813 0
-820 -819 0
821 -6 -8 0
822 -9 -821 0
823 -11 -822 0
824 12 -823 0
825 -13 -824 0
826 -14 -825 0
-827 820 0
-827 -826 0
828 -6 -8 0
829 -9 -828 0
830 -10 -829 0
831 -12 -830 0
832 13 -831 0
833 14 -832 0
-834 827 0
-834 -833 0
835 -6 -8 0
836 -9 -835 0
837 -10 -836 0
838 -11 -837 0
839 -13 -838 0
840 -14 -839 0
-841 834 0
-841 -840 0
842 -6 7 0
843 -9 -842 0
844 -10 -843 0
845 11 -844 0
846 -12 -845 0
847 -13 -846 0
848 -14 -847 0
-849 841 0
-849 -848 0
850 -6 7 0
851 8 -850 0
852 -9 -851 0
853 10 -852 0
854 -12 -853 0
855 13 -854 0
856 14 -855 0
-857 849 0
-857 -856 0
858 -6 7 0
859 8 -858 0
860 -9 -859 0
861 -10 -860 0
862 11 -861 0
863 -13 -862 0
864 -14 -863 0
-865 857 0
-865 -864 0
866 -6 7 0
867 -8 -866 0
868 11 -867 0
869 12 -868 0
870 -13 -869 0
871 14 -870 0
-872 865 0
-872 -871 0
873 -6 7 0
874 -8 -873 0
875 11 -874 0
876 -12 -875 0
877 -13 -876 0
878 -14 -877 0
-879 872 0
-879 -878 0
880 -6 7 0
881 -8 -880 0
882 -11 -881 0
883 -12 -882 0
884 13 -883 0
885 14 -884 0
-886 879 0
-886 -885 0
887 -6 7 0
888 -8 -887 0
889 10 -888 0
890 11 -889 0
891 -12 -890 0
892 -14 -891 0
-893 886 0
-893 -892 0
894 -6 7 0
895 -8 -894 0
896 10 -895 0
897 -11 -896 0
898 13 -897 0
899 14 -898 0
-900 893 0
-900 -899 0
901 -6 7 0
902 -8 -901 0
903 -10 -902 0
904 12 -903 0
905 13 -904 0
906 -14 -905 0
-907 900 0
-907 -906 0
908 -6 7 0
909 -8 -908 0
910 -10 -909 0
911 -11 -910 0
912 12 -911 0
913 -14 -912 0
-914 907 0
-914 -913 0
915 -6 -7 0
916 9 -915 0
917 11 -916 0
918 12 -917 0
919 -13 -918 0
920 14 -919 0
-921 914 0
-921 -920 0
922 -6 -7 0
923 9 -922 0
924 10 -923 0
925 11 -924 0
926 -12 -925 0
927 -14 -926 0
-928 921 0
-928 -927 0
929 -6 -7 0
930 9 -929 0
931 10 -930 0
932 -11 -931 0
933 12 -932 0
934 13 -933 0
935 14 -934 0
-936 928 0
-936 -935 0
937 -6 -7 0
938 -9 -937 0
939 12 -938 0
940 -13 -939 0
941 -14 -940 0
-942 936 0
-942 -941 0
943 -6 -7 0
944 -9 -943 0
945 11 -944 0
946 -12 -945 0
947 14 -946 0
-948 942 0
-948 -947 0
949 -6 -7 0
950 -9 -949 0
951 10 -950 0
952 -11 -951 0
953 -14 -952 0
-954 948 0
-954 -953 0
955 -6 -7 0
956 -9 -955 0
957 -10 -956 0
958 11 -957 0
959 13 -958 0
960 14 -959 0
-961 954 0
-961 -960 0
962 -6 -7 0
963 8 -962 0
964 -10 -963 0
965 11 -964 0
966 -12 -965 0
967 14 -966 0
-968 961 0
-968 -967 0
969 -6 -7 0
970 8 -969 0
971 9 -970 0
972 10 -971 0
973 -12 -972 0
974 13 -973 0
975 -14 -974 0
-976 968 0
-976 -975 0
977 -6 -7 0
978 8 -977 0
979 9 -978 0
980 -10 -979 0
981 11 -980 0
982 -13 -981 0
983 14 -982 0
-984 976 0
-984 -983 0
985 -6 -7 0
986 8 -985 0
987 9 -986 0
988 -10 -987 0
989 -11 -988 0
990 12 -989 0
991 -14 -990 0
-992 984 0
-992 -991 0
993 -6 -7 0
994 -8 -993 0
995 9 -994 0
996 12 -995 0
997 -13 -996 0
998 14 -997 0
-999 992 0
-999 -998 0
1000 -6 -7 0
1001 -8 -1000 0
1002 9 -1001 0
1003 -10 -1002 0
1004 13 -1003 0
1005 -14 -1004 0
-1006 999 0
-1006 -1005 0
1007 -6 -7 0
1008 -8 -1007 0
1009 -9 -1008 0
1010 -10 -1009 0
1011 13 -1010 0
1012 14 -1011 0
-1013 1006 0
-1013 -1012 0
-1014 1 0
-1014 1013 0
-1015 -37 -15 0
-1015 37 15 0
-1016 1 0
-1016 1015 0
-1017 -38 -16 0
-1017 38 16 0
-1018 1016 0
-1018 1017 0
-1019 -39 -17 0
-1019 39 17 0
-1020 1018 0
-1020 1019 0
-1021 -40 -18 0
-1021 40 18 0
-1022 1020 0
-1022 1021 0
-1023 -41 -19 0
-1023 41 19 0
-1024 1022 0
-1024 1023 0
-1025 -42 -20 0
-1025 42 20 0
-1026 1024 0
-1026 1025 0
-1027 -43 -21 0
-1027 43 21 0
-1028 1026 0
-1028 1027 0
-1029 -44 -22 0
-1029 44 22 0
-1030 1028 0
-1030 1029 0
-1031 57 -23 0
-1031 -57 23 0
-1032 1030 0
-1032 1031 0
1033 17 -18 0
1034 19 -1033 0
1035 20 -1034 0
1036 21 -1035 0
1037 -22 -1036 0
1038 17 -18 0
1039 19 -1038 0
1040 20 -1039 0
1041 -21 -1040 0
1042 -22 -1041 0
-1043 23 -1042 0
-1043 -23 -1037 0
1044 17 -18 0
1045 19 -1044 0
1046 -20 -1045 0
1047 -21 -1046 0
1048 -22 -1047 0
1049 -23 -1048 0
-1050 1043 0
-1050 -1049 0
1051 17 -18 0
1052 -19 -1051 0
1053 -20 -1052 0
1054 -21 -1053 0
1055 22 -1054 0
1056 -23 -1055 0
-1057 1050 0
-1057 -1056 0
1058 17 -18 0
1059 -19 -1058 0
1060 -20 -1059 0
1061 -21 -1060 0
1062 -22 -1061 0
1063 23 -1062 0
-1064 1057 0
-1064 -1063 0
1065 16 18 0
1066 19 -1065 0
1067 20 -1066 0
1068 21 -1067 0
1069 -22 -1068 0
1070 23 -1069 0
-1071 1064 0
-1071 -1070 0
1072 16 18 0
1073 19 -1072 0
1074 20 -1073 0
1075 -21 -1074 0
1076 -22 -1075 0
1077 -23 -1076 0
-1078 1071 0
-1078 -1077 0
1079 16 18 0
1080 -19 -1079 0
1081 -20 -1080 0
1082 -22 -1081 0
1083 -23 -1082 0
-1084 1078 0
-1084 -1083 0
1085 16 18 0
1086 -19 -1085 0
1087 -20 -1086 0
1088 -21 -1087 0
1089 22 -1088 0
1090 23 -1089 0
-1091 1084 0
-1091 -1090 0
1092 16 17 0
1093 18 -1092 0
1094 20 -1093 0
1095 -21 -1094 0
1096 22 -1095 0
1097 23 -1096 0
-1098 1091 0
-1098 -1097 0
1099 16 17 0
1100 18 -1099 0
1101 19 -1100 0
1102 -20 -1101 0
1103 22 -1102 0
1104 -23 -1103 0
-1105 1098 0
-1105 -1104 0
1106 16 17 0
1107 18 -1106 0
1108 19 -1107 0
1109 -20 -1108 0
1110 21 -1109 0
1111 -23 -1110 0
-1112 1105 0
-1112 -1111 0
1113 16 17 0
1114 18 -1113 0
1115 -19 -1114 0
1116 21 -1115 0
1117 -22 -1116 0
1118 -23 -1117 0
-1119 1112 0
-1119 -1118 0
1120 16 17 0
1121 18 -1120 0
1122 -19 -1121 0
1123 20 -1122 0
1124 21 -1123 0
1125 -23 -1124 0
-1126 1119 0
-1126 -1125 0
1127 16 17 0
1128 18 -1127 0
1129 -19 -1128 0
1130 20 -1129 0
1131 -21 -1130 0
1132 23 -1131 0
-1133 1126 0
-1133 -1132 0
1134 16 17 0
1135 18 -1134 0
1136 -19 -1135 0
1137 -20 -1136 0
1138 22 -1137 0
1139 23 -1138 0
-1140 1133 0
-1140 -1139 0
1141 16 17 0
1142 -18 -1141 0
1143 -20 -1142 0
1144 21 -1143 0
1145 -22 -1144 0
1146 23 -1145 0
-1147 1140 0
-1147 -1146 0
1148 16 17 0
1149 -18 -1148 0
1150 -19 -1149 0
1151 20 -1150 0
1152 -21 -1151 0
1153 -23 -1152 0
-1154 1147 0
-1154 -1153 0
1155 16 17 0
1156 -18 -1155 0
1157 -19 -1156 0
1158 -20 -1157 0
1159 22 -1158 0
1160 -23 -1159 0
-1161 1154 0
-1161 -1160 0
1162 16 17 0
1163 -18 -1162 0
1164 -19 -1163 0
1165 -20 -1164 0
1166 -22 -1165 0
1167 23 -1166 0
-1168 1161 0
-1168 -1167 0
1169 16 -17 0
1170 19 -1169 0
1171 20 -1170 0
1172 -21 -1171 0
1173 -22 -1172 0
1174 -23 -1173 0
-1175 1168 0
-1175 -1174 0
1176 16 -17 0
1177 19 -1176 0
1178 -20 -1177 0
1179 -21 -1178 0
1180 -22 -1179 0
1181 23 -1180 0
-1182 1175 0
-1182 -1181 0
1183 16 -17 0
1184 -19 -1183 0
1185 -20 -1184 0
1186 -22 -1185 0
1187 -23 -1186 0
-1188 1182 0
-1188 -1187 0
1189 16 -17 0
1190 -19 -1189 0
1191 -20 -1190 0
1192 -21 -1191 0
1193 22 -1192 0
1194 23 -1193 0
-1195 1188 0
-1195 -1194 0
1196 16 -17 0
1197 -18 -1196 0
1198 -20 -1197 0
1199 21 -1198 0
1200 -22 -1199 0
1201 -23 -1200 0
-1202 1195 0
-1202 -1201 0
1203 16 -17 0
1204 -18 -1203 0
1205 -19 -1204 0
1206 -21 -1205 0
1207 22 -1206 0
1208 23 -1207 0
-1209 1202 0
-1209 -1208 0
1210 -16 -18 0
1211 19 -1210 0
1212 -20 -1211 0
1213 -21 -1212 0
1214 -22 -1213 0
1215 -23 -1214 0
-1216 1209 0
-1216 -1215 0
1217 -16 17 0
1218 -18 -1217 0
1219 20 -1218 0
1220 21 -1219 0
1221 -22 -1220 0
1222 -23 -1221 0
-1223 1216 0
-1223 -1222 0
1224 -16 17 0
1225 -18 -1224 0
1226 19 -1225 0
1227 20 -1226 0
1228 -21 -1227 0
1229 23 -1228 0
-1230 1223 0
-1230 -1229 0
1231 -16 17 0
1232 -18 -1231 0
1233 19 -1232 0
1234 -20 -1233 0
1235 -23 -1234 0
-1236 1230 0
-1236 -1235 0
1237 -16 17 0
1238 -18 -1237 0
1239 -19 -1238 0
1240 21 -1239 0
1241 22 -1240 0
1242 23 -1241 0
-1243 1236 0
-1243 -1242 0
1244 -16 17 0
1245 -18 -1244 0
1246 -19 -1245 0
1247 -21 -1246 0
1248 -22 -1247 0
1249 23 -1248 0
-1250 1243 0
-1250 -1249 0
1251 -16 -17 0
1252 18 -1251 0
1253 -19 -1252 0
1254 20 -1253 0
1255 -21 -1254 0
1256 -23 -1255 0
-1257 1250 0
-1257 -1256 0
1258 -16 -17 0
1259 18 -1258 0
1260 -19 -1259 0
1261 -20 -1260 0
1262 -21 -1261 0
1263 22 -1262 0
1264 -23 -1263 0
-1265 1257 0
-1265 -1264 0
1266 15 17 0
1267 19 -1266 0
1268 20 -1267 0
1269 -21 -1268 0
1270 -22 -1269 0
1271 23 -1270 0
-1272 1265 0
-1272 -1271 0
1273 15 17 0
1274 -19 -1273 0
1275 -21 -1274 0
1276 22 -1275 0
1277 -23 -1276 0
-1278 1272 0
-1278 -1277 0
1279 15 17 0
1280 -19 -1279 0
1281 -20 -1280 0
1282 -22 -1281 0
1283 23 -1282 0
-1284 1278 0
-1284 -1283 0
1285 15 17 0
1286 18 -1285 0
1287 20 -1286 0
1288 -21 -1287 0
1289 22 -1288 0
1290 -23 -1289 0
-1291 1284 0
-1291 -1290 0
1292 15 17 0
1293 18 -1292 0
1294 -20 -1293 0
1295 21 -1294 0
1296 -22 -1295 0
1297 23 -1296 0
-1298 1291 0
-1298 -1297 0
1299 15 17 0
1300 18 -1299 0
1301 19 -1300 0
1302 -20 -1301 0
1303 -21 -1302 0
1304 22 -1303 0
1305 23 -1304 0
-1306 1298 0
-1306 -1305 0
1307 15 17 0
1308 18 -1307 0
1309 -19 -1308 0
1310 21 -1309 0
1311 -22 -1310 0
1312 23 -1311 0
-1313 1306 0
-1313 -1312 0
1314 15 17 0
1315 18 -1314 0
1316 -19 -1315 0
1317 20 -1316 0
1318 -21 -1317 0
1319 -23 -1318 0
-1320 1313 0
-1320 -1319 0
1321 15 17 0
1322 18 -1321 0
1323 -19 -1322 0
1324 -20 -1323 0
1325 22 -1324 0
1326 -23 -1325 0
-1327 1320 0
-1327 -1326 0
1328 15 -17 0
1329 -18 -1328 0
1330 19 -1329 0
1331 20 -1330 0
1332 -21 -1331 0
1333 -22 -1332 0
1334 -23 -1333 0
-1335 1327 0
-1335 -1334 0
1336 15 16 0
1337 18 -1336 0
1338 -20 -1337 0
1339 21 -1338 0
1340 22 -1339 0
1341 23 -1340 0
-1342 1335 0
-1342 -1341 0
1343 15 16 0
1344 18 -1343 0
1345 -20 -1344 0
1346 21 -1345 0
1347 -22 -1346 0
1348 -23 -1347 0
-1349 1342 0
-1349 -1348 0
1350 15 16 0
1351 18 -1350 0
1352 19 -1351 0
1353 -21 -1352 0
1354 22 -1353 0
1355 -23 -1354 0
-1356 1349 0
-1356 -1355 0
1357 15 16 0
1358 18 -1357 0
1359 19 -1358 0
1360 20 -1359 0
1361 -21 -1360 0
1362 -23 -1361 0
-1363 1356 0
-1363 -1362 0
1364 15 16 0
1365 18 -1364 0
1366 -19 -1365 0
1367 21 -1366 0
1368 -22 -1367 0
1369 -23 -1368 0
-1370 1363 0
-1370 -1369 0
1371 15 16 0
1372 18 -1371 0
1373 -19 -1372 0
1374 20 -1373 0
1375 21 -1374 0
1376 -23 -1375 0
-1377 1370 0
-1377 -1376 0
1378 15 16 0
1379 18 -1378 0
1380 -19 -1379 0
1381 20 -1380 0
1382 -21 -1381 0
1383 23 -1382 0
-1384 1377 0
-1384 -1383 0
1385 15 16 0
1386 18 -1385 0
1387 -19 -1386 0
1388 -20 -1387 0
1389 22 -1388 0
1390 23 -1389 0
-1391 1384 0
-1391 -1390 0
1392 15 16 0
1393 -18 -1392 0
1394 19 -1393 0
1395 20 -1394 0
1396 21 -1395 0
1397 -22 -1396 0
1398 -23 -1397 0
-1399 1391 0
-1399 -1398 0
1400 15 16 0
1401 17 -1400 0
1402 20 -1401 0
1403 -21 -1402 0
1404 22 -1403 0
1405 -23 -1404 0
-1406 1399 0
-1406 -1405 0
1407 15 16 0
1408 17 -1407 0
1409 19 -1408 0
1410 -20 -1409 0
1411 22 -1410 0
1412 23 -1411 0
-1413 1406 0
-1413 -1412 0
1414 15 16 0
1415 17 -1414 0
1416 19 -1415 0
1417 -20 -1416 0
1418 21 -1417 0
1419 23 -1418 0
-1420 1413 0
-1420 -1419 0
1421 15 16 0
1422 17 -1421 0
1423 -19 -1422 0
1424 22 -1423 0
1425 -23 -1424 0
-1426 1420 0
-1426 -1425 0
1427 15 16 0
1428 17 -1427 0
1429 -19 -1428 0
1430 21 -1429 0
1431 -22 -1430 0
1432 23 -1431 0
-1433 1426 0
-1433 -1432 0
1434 15 16 0
1435 17 -1434 0
1436 18 -1435 0
1437 -22 -1436 0
-1438 1433 0
-1438 -1437 0
1439 15 16 0
1440 17 -1439 0
1441 18 -1440 0
1442 -21 -1441 0
-1443 1438 0
-1443 -1442 0
1444 15 16 0
1445 17 -1444 0
1446 18 -1445 0
1447 -20 -1446 0
-1448 1443 0
-1448 -1447 0
1449 15 16 0
1450 17 -1449 0
1451 18 -1450 0
1452 -19 -1451 0
-1453 1448 0
-1453 -1452 0
1454 15 16 0
1455 -17 -1454 0
1456 -19 -1455 0
1457 21 -1456 0
1458 -22 -1457 0
1459 -23 -1458 0
-1460 1453 0
-1460 -1459 0
1461 15 16 0
1462 -17 -1461 0
1463 -19 -1462 0
1464 20 -1463 0
1465 -21 -1464 0
1466 23 -1465 0
-1467 1460 0
-1467 -1466 0
1468 15 16 0
1469 -17 -1468 0
1470 -19 -1469 0
1471 -20 -1470 0
1472 22 -1471 0
1473 23 -1472 0
-1474 1467 0
-1474 -1473 0
1475 15 16 0
1476 -17 -1475 0
1477 -18 -1476 0
1478 21 -1477 0
1479 -22 -1478 0
1480 -23 -1479 0
-1481 1474 0
-1481 -1480 0
1482 15 16 0
1483 -17 -1482 0
1484 -18 -1483 0
1485 20 -1484 0
1486 -21 -1485 0
1487 22 -1486 0
1488 23 -1487 0
-1489 1481 0
-1489 -1488 0
1490 15 16 0
1491 -17 -1490 0
1492 -18 -1491 0
1493 19 -1492 0
1494 20 -1493 0
1495 -22 -1494 0
1496 -23 -1495 0
-1497 1489 0
-1497 -1496 0
1498 15 16 0
1499 -17 -1498 0
1500 -18 -1499 0
1501 19 -1500 0
1502 -20 -1501 0
1503 22 -1502 0
1504 -23 -1503 0
-1505 1497 0
-1505 -1504 0
1506 15 16 0
1507 -17 -1506 0
1508 -18 -1507 0
1509 -19 -1508 0
1510 22 -1509 0
1511 23 -1510 0
-1512 1505 0
-1512 -1511 0
1513 15 -16 0
1514 19 -1513 0
1515 -20 -1514 0
1516 -21 -1515 0
1517 -22 -1516 0
1518 -23 -1517 0
-1519 1512 0
-1519 -1518 0
1520 15 -16 0
1521 -19 -1520 0
1522 -20 -1521 0
1523 -22 -1522 0
1524 23 -1523 0
-1525 1519 0
-1525 -1524 0
1526 15 -16 0
1527 -19 -1526 0
1528 -20 -1527 0
1529 -21 -1528 0
1530 22 -1529 0
1531 -23 -1530 0
-1532 1525 0
-1532 -1531 0
1533 15 -16 0
1534 18 -1533 0
1535 -20 -1534 0
1536 21 -1535 0
1537 -22 -1536 0
1538 23 -1537 0
-1539 1532 0
-1539 -1538 0
1540 15 -16 0
1541 18 -1540 0
1542 19 -1541 0
1543 20 -1542 0
1544 21 -1543 0
1545 -22 -1544 0
1546 -23 -1545 0
-1547 1539 0
-1547 -1546 0
1548 15 -16 0
1549 18 -1548 0
1550 19 -1549 0
1551 20 -1550 0
1552 -21 -1551 0
1553 -22 -1552 0
1554 23 -1553 0
-1555 1547 0
-1555 -1554 0
1556 15 -16 0
1557 18 -1556 0
1558 19 -1557 0
1559 -20 -1558 0
1560 21 -1559 0
1561 22 -1560 0
1562 -23 -1561 0
-1563 1555 0
-1563 -1562 0
1564 15 -16 0
1565 18 -1564 0
1566 -19 -1565 0
1567 -21 -1566 0
1568 22 -1567 0
1569 -23 -1568 0
-1570 1563 0
-1570 -1569 0
1571 15 -16 0
1572 18 -1571 0
1573 -19 -1572 0
1574 20 -1573 0
1575 21 -1574 0
1576 22 -1575 0
1577 23 -1576 0
-1578 1570 0
-1578 -1577 0
1579 15 -16 0
1580 18 -1579 0
1581 -19 -1580 0
1582 20 -1581 0
1583 -21 -1582 0
1584 -23 -1583 0
-1585 1578 0
-1585 -1584 0
1586 15 -16 0
1587 17 -1586 0
1588 -18 -1587 0
1589 -19 -1588 0
1590 -20 -1589 0
1591 21 -1590 0
1592 23 -1591 0
-1593 1585 0
-1593 -1592 0
1594 15 -16 0
1595 -17 -1594 0
1596 -19 -1595 0
1597 20 -1596 0
1598 -21 -1597 0
1599 -23 -1598 0
-1600 1593 0
-1600 -1599 0
1601 15 -16 0
1602 -17 -1601 0
1603 18 -1602 0
1604 19 -1603 0
1605 20 -1604 0
1606 -21 -1605 0
1607 23 -1606 0
-1608 1600 0
-1608 -1607 0
1609 15 -16 0
1610 -17 -1609 0
1611 18 -1610 0
1612 19 -1611 0
1613 -20 -1612 0
1614 22 -1613 0
1615 -23 -1614 0
-1616 1608 0
-1616 -1615 0
1617 15 -16 0
1618 -17 -1617 0
1619 18 -1618 0
1620 -19 -1619 0
1621 20 -1620 0
1622 -22 -1621 0
1623 -23 -1622 0
-1624 1616 0
-1624 -1623 0
1625 15 -16 0
1626 -17 -1625 0
1627 18 -1626 0
1628 -19 -1627 0
1629 -20 -1628 0
1630 21 -1629 0
1631 23 -1630 0
-1632 1624 0
-1632 -1631 0
1633 15 -16 0
1634 -17 -1633 0
1635 -18 -1634 0
1636 21 -1635 0
1637 -22 -1636 0
1638 23 -1637 0
-1639 1632 0
-1639 -1638 0
1640 15 -16 0
1641 -17 -1640 0
1642 -18 -1641 0
1643 20 -1642 0
1644 -21 -1643 0
1645 -23 -1644 0
-1646 1639 0
-1646 -1645 0
1647 15 -16 0
1648 -17 -1647 0
1649 -18 -1648 0
1650 19 -1649 0
1651 -20 -1650 0
1652 22 -1651 0
1653 23 -1652 0
-1654 1646 0
-1654 -1653 0
1655 15 -16 0
1656 -17 -1655 0
1657 -18 -1656 0
1658 -19 -1657 0
1659 22 -1658 0
1660 -23 -1659 0
-1661 1654 0
-1661 -1660 0
1662 -15 18 0
1663 19 -1662 0
1664 20 -1663 0
1665 21 -1664 0
1666 -22 -1665 0
1667 23 -1666 0
-1668 1661 0
-1668 -1667 0
1669 -15 18 0
1670 19 -1669 0
1671 20 -1670 0
1672 -21 -1671 0
1673 -22 -1672 0
1674 -23 -1673 0
-1675 1668 0
-1675 -1674 0
1676 -15 18 0
1677 19 -1676 0
1678 -20 -1677 0
1679 -21 -1678 0
1680 -22 -1679 0
1681 23 -1680 0
-1682 1675 0
-1682 -1681 0
1683 -15 18 0
1684 -19 -1683 0
1685 20 -1684 0
1686 21 -1685 0
1687 22 -1686 0
1688 -23 -1687 0
-1689 1682 0
-1689 -1688 0
1690 -15 18 0
1691 -19 -1690 0
1692 -20 -1691 0
1693 -21 -1692 0
1694 -22 -1693 0
1695 -23 -1694 0
-1696 1689 0
-1696 -1695 0
1697 -15 17 0
1698 18 -1697 0
1699 -20 -1698 0
1700 21 -1699 0
1701 -22 -1700 0
1702 -23 -1701 0
-1703 1696 0
-1703 -1702 0
1704 -15 17 0
1705 18 -1704 0
1706 -19 -1705 0
1707 20 -1706 0
1708 -21 -1707 0
1709 23 -1708 0
-1710 1703 0
-1710 -1709 0
1711 -15 17 0
1712 18 -1711 0
1713 -19 -1712 0
1714 -20 -1713 0
1715 -22 -1714 0
1716 -23 -1715 0
-1717 1710 0
-1717 -1716 0
1718 -15 17 0
1719 18 -1718 0
1720 -19 -1719 0
1721 -20 -1720 0
1722 -21 -1721 0
1723 22 -1722 0
1724 23 -1723 0
-1725 1717 0
-1725 -1724 0
1726 -15 17 0
1727 -18 -1726 0
1728 20 -1727 0
1729 21 -1728 0
1730 -22 -1729 0
1731 -23 -1730 0
-1732 1725 0
-1732 -1731 0
1733 -15 17 0
1734 -18 -1733 0
1735 19 -1734 0
1736 20 -1735 0
1737 -21 -1736 0
1738 23 -1737 0
-1739 1732 0
-1739 -1738 0
1740 -15 17 0
1741 -18 -1740 0
1742 19 -1741 0
1743 -20 -1742 0
1744 21 -1743 0
1745 22 -1744 0
1746 -23 -1745 0
-1747 1739 0
-1747 -1746 0
1748 -15 17 0
1749 -18 -1748 0
1750 -19 -1749 0
1751 20 -1750 0
1752 21 -1751 0
1753 22 -1752 0
1754 23 -1753 0
-1755 1747 0
-1755 -1754 0
1756 -15 -17 0
1757 18 -1756 0
1758 20 -1757 0
1759 21 -1758 0
1760 -22 -1759 0
1761 23 -1760 0
-1762 1755 0
-1762 -1761 0
1763 -15 -17 0
1764 18 -1763 0
1765 20 -1764 0
1766 -21 -1765 0
1767 -23 -1766 0
-1768 1762 0
-1768 -1767 0
1769 -15 -17 0
1770 18 -1769 0
1771 19 -1770 0
1772 -20 -1771 0
1773 23 -1772 0
-1774 1768 0
-1774 -1773 0
1775 -15 -17 0
1776 18 -1775 0
1777 -19 -1776 0
1778 21 -1777 0
1779 22 -1778 0
1780 -23 -1779 0
-1781 1774 0
-1781 -1780 0
1782 -15 -17 0
1783 18 -1782 0
1784 -19 -1783 0
1785 -21 -1784 0
1786 -22 -1785 0
1787 -23 -1786 0
-1788 1781 0
-1788 -1787 0
1789 -15 -17 0
1790 18 -1789 0
1791 -19 -1790 0
1792 20 -1791 0
1793 22 -1792 0
1794 -23 -1793 0
-1795 1788 0
-1795 -1794 0
1796 -15 -17 0
1797 -18 -1796 0
1798 -20 -1797 0
1799 21 -1798 0
1800 -22 -1799 0
1801 -23 -1800 0
-1802 1795 0
-1802 -1801 0
1803 -15 -17 0
1804 -18 -1803 0
1805 -19 -1804 0
1806 -21 -1805 0
1807 22 -1806 0
1808 23 -1807 0
-1809 1802 0
-1809 -1808 0
1810 -15 -17 0
1811 -18 -1810 0
1812 -19 -1811 0
1813 -20 -1812 0
1814 -22 -1813 0
1815 -23 -1814 0
-1816 1809 0
-1816 -1815 0
1817 -15 16 0
1818 -18 -1817 0
1819 -19 -1818 0
1820 20 -1819 0
1821 -21 -1820 0
1822 -22 -1821 0
1823 -23 -1822 0
-1824 1816 0
-1824 -1823 0
1825 -15 16 0
1826 17 -1825 0
1827 -18 -1826 0
1828 19 -1827 0
1829 -21 -1828 0
1830 22 -1829 0
1831 23 -1830 0
-1832 1824 0
-1832 -1831 0
1833 -15 16 0
1834 17 -1833 0
1835 -18 -1834 0
1836 -19 -1835 0
1837 20 -1836 0
1838 -22 -1837 0
1839 -23 -1838 0
-1840 1832 0
-1840 -1839 0
1841 -15 16 0
1842 -17 -1841 0
1843 20 -1842 0
1844 21 -1843 0
1845 -22 -1844 0
1846 23 -1845 0
-1847 1840 0
-1847 -1846 0
1848 -15 16 0
1849 -17 -1848 0
1850 20 -1849 0
1851 -21 -1850 0
1852 -22 -1851 0
1853 -23 -1852 0
-1854 1847 0
-1854 -1853 0
1855 -15 16 0
1856 -17 -1855 0
1857 -20 -1856 0
1858 -21 -1857 0
1859 22 -1858 0
1860 23 -1859 0
-1861 1854 0
-1861 -1860 0
1862 -15 16 0
1863 -17 -1862 0
1864 19 -1863 0
1865 20 -1864 0
1866 -21 -1865 0
1867 -23 -1866 0
-1868 1861 0
-1868 -1867 0
1869 -15 16 0
1870 -17 -1869 0
1871 19 -1870 0
1872 -20 -1871 0
1873 22 -1872 0
1874 23 -1873 0
-1875 1868 0
-1875 -1874 0
1876 -15 16 0
1877 -17 -1876 0
1878 -19 -1877 0
1879 21 -1878 0
1880 22 -1879 0
1881 -23 -1880 0
-1882 1875 0
-1882 -1881 0
1883 -15 16 0
1884 -17 -1883 0
1885 -19 -1884 0
1886 -20 -1885 0
1887 21 -1886 0
1888 -23 -1887 0
-1889 1882 0
-1889 -1888 0
1890 -15 -16 0
1891 18 -1890 0
1892 20 -1891 0
1893 21 -1892 0
1894 -22 -1893 0
1895 23 -1894 0
-1896 1889 0
-1896 -1895 0
1897 -15 -16 0
1898 18 -1897 0
1899 19 -1898 0
1900 20 -1899 0
1901 -21 -1900 0
1902 -23 -1901 0
-1903 1896 0
-1903 -1902 0
1904 -15 -16 0
1905 18 -1904 0
1906 19 -1905 0
1907 -20 -1906 0
1908 21 -1907 0
1909 22 -1908 0
1910 23 -1909 0
-1911 1903 0
-1911 -1910 0
1912 -15 -16 0
1913 -18 -1912 0
1914 21 -1913 0
1915 -22 -1914 0
1916 -23 -1915 0
-1917 1911 0
-1917 -1916 0
1918 -15 -16 0
1919 -18 -1918 0
1920 20 -1919 0
1921 -21 -1920 0
1922 23 -1921 0
-1923 1917 0
-1923 -1922 0
1924 -15 -16 0
1925 -18 -1924 0
1926 19 -1925 0
1927 -20 -1926 0
1928 -23 -1927 0
-1929 1923 0
-1929 -1928 0
1930 -15 -16 0
1931 -18 -1930 0
1932 -19 -1931 0
1933 20 -1932 0
1934 22 -1933 0
1935 23 -1934 0
-1936 1929 0
-1936 -1935 0
1937 -15 -16 0
1938 17 -1937 0
1939 -19 -1938 0
1940 20 -1939 0
1941 -21 -1940 0
1942 23 -1941 0
-1943 1936 0
-1943 -1942 0
1944 -15 -16 0
1945 17 -1944 0
1946 18 -1945 0
1947 19 -1946 0
1948 -21 -1947 0
1949 22 -1948 0
1950 -23 -1949 0
-1951 1943 0
-1951 -1950 0
1952 -15 -16 0
1953 17 -1952 0
1954 18 -1953 0
1955 -19 -1954 0
1956 20 -1955 0
1957 -22 -1956 0
1958 23 -1957 0
-1959 1951 0
-1959 -1958 0
1960 -15 -16 0
1961 17 -1960 0
1962 18 -1961 0
1963 -19 -1962 0
1964 -20 -1963 0
1965 21 -1964 0
1966 -23 -1965 0
-1967 1959 0
-1967 -1966 0
1968 -15 -16 0
1969 -17 -1968 0
1970 18 -1969 0
1971 21 -1970 0
1972 -22 -1971 0
1973 23 -1972 0
-1974 1967 0
-1974 -1973 0
1975 -15 -16 0
1976 -17 -1975 0
1977 18 -1976 0
1978 -19 -1977 0
1979 22 -1978 0
1980 -23 -1979 0
-1981 1974 0
-1981 -1980 0
1982 -15 -16 0
1983 -17 -1982 0
1984 -18 -1983 0
1985 -19 -1984 0
1986 22 -1985 0
1987 23 -1986 0
-1988 1981 0
-1988 -1987 0
-1989 1 0
-1989 1988 0
1990 26 -27 0
1991 28 -1990 0
1992 29 -1991 0
1993 30 -1992 0
1994 -31 -1993 0
1995 26 -27 0
1996 28 -1995 0
1997 29 -1996 0
1998 -30 -1997 0
1999 -31 -1998 0
-2000 32 -1999 0
-2000 -32 -1994 0
2001 26 -27 0
2002 28 -2001 0
2003 -29 -2002 0
2004 -30 -2003 0
2005 -31 -2004 0
2006 -32 -2005 0
-2007 2000 0
-2007 -2006 0
2008 26 -27 0
2009 -28 -2008 0
2010 -29 -2009 0
2011 -30 -2010 0
2012 31 -2011 0
2013 -32 -2012 0
-2014 2007 0
-2014 -2013 0
2015 26 -27 0
2016 -28 -2015 0
2017 -29 -2016 0
2018 -30 -2017 0
2019 -31 -2018 0
2020 32 -2019 0
-2021 2014 0
-2021 -2020 0
2022 25 27 0
2023 28 -2022 0
2024 29 -2023 0
2025 30 -2024 0
2026 -31 -2025 0
2027 32 -2026 0
-2028 2021 0
-2028 -2027 0
2029 25 27 0
2030 28 -2029 0
2031 29 -2030 0
2032 -30 -2031 0
2033 -31 -2032 0
2034 -32 -2033 0
-2035 2028 0
-2035 -2034 0
2036 25 27 0
2037 -28 -2036 0
2038 -29 -2037 0
2039 -31 -2038 0
2040 -32 -2039 0
-2041 2035 0
-2041 -2040 0
2042 25 27 0
2043 -28 -2042 0
2044 -29 -2043 0
2045 -30 -2044 0
2046 31 -2045 0
2047 32 -2046 0
-2048 2041 0
-2048 -2047 0
2049 25 26 0
2050 27 -2049 0
2051 29 -2050 0
2052 -30 -2051 0
2053 31 -2052 0
2054 32 -2053 0
-2055 2048 0
-2055 -2054 0
2056 25 26 0
2057 27 -2056 0
2058 28 -2057 0
2059 -29 -2058 0
2060 31 -2059 0
2061 -32 -2060 0
-2062 2055 0
-2062 -2061 0
2063 25 26 0
2064 27 -2063 0
2065 28 -2064 0
2066 -29 -2065 0
2067 30 -2066 0
2068 -32 -2067 0
-2069 2062 0
-2069 -2068 0
2070 25 26 0
2071 27 -2070 0
2072 -28 -2071 0
2073 30 -2072 0
2074 -31 -2073 0
2075 -32 -2074 0
-2076 2069 0
-2076 -2075 0
2077 25 26 0
2078 27 -2077 0
2079 -28 -2078 0
2080 29 -2079 0
2081 30 -2080 0
2082 -32 -2081 0
-2083 2076 0
-2083 -2082 0
2084 25 26 0
2085 27 -2084 0
2086 -28 -2085 0
2087 29 -2086 0
2088 -30 -2087 0
2089 32 -2088 0
-2090 2083 0
-2090 -2089 0
2091 25 26 0
2092 27 -2091 0
2093 -28 -2092 0
2094 -29 -2093 0
2095 31 -2094 0
2096 32 -2095 0
-2097 2090 0
-2097 -2096 0
2098 25 26 0
2099 -27 -2098 0
2100 -29 -2099 0
2101 30 -2100 0
2102 -31 -2101 0
2103 32 -2102 0
-2104 2097 0
-2104 -2103 0
2105 25 26 0
2106 -27 -2105 0
2107 -28 -2106 0
2108 29 -2107 0
2109 -30 -2108 0
2110 -32 -2109 0
-2111 2104 0
-2111 -2110 0
2112 25 26 0
2113 -27 -2112 0
2114 -28 -2113 0
2115 -29 -2114 0
2116 31 -2115 0
2117 -32 -2116 0
-2118 2111 0
-2118 -2117 0
2119 25 26 0
2120 -27 -2119 0
2121 -28 -2120 0
2122 -29 -2121 0
2123 -31 -2122 0
2124 32 -2123 0
-2125 2118 0
-2125 -2124 0
2126 25 -26 0
2127 28 -2126 0
2128 29 -2127 0
2129 -30 -2128 0
2130 -31 -2129 0
2131 -32 -2130 0
-2132 2125 0
-2132 -2131 0
2133 25 -26 0
2134 28 -2133 0
2135 -29 -2134 0
2136 -30 -2135 0
2137 -31 -2136 0
2138 32 -2137 0
-2139 2132 0
-2139 -2138 0
2140 25 -26 0
2141 -28 -2140 0
2142 -29 -2141 0
2143 -31 -2142 0
2144 -32 -2143 0
-2145 2139 0
-2145 -2144 0
2146 25 -26 0
2147 -28 -2146 0
2148 -29 -2147 0
2149 -30 -2148 0
2150 31 -2149 0
2151 32 -2150 0
-2152 2145 0
-2152 -2151 0
2153 25 -26 0
2154 -27 -2153 0
2155 -29 -2154 0
2156 30 -2155 0
2157 -31 -2156 0
2158 -32 -2157 0
-2159 2152 0
-2159 -2158 0
2160 25 -26 0
2161 -27 -2160 0
2162 -28 -2161 0
2163 -30 -2162 0
2164 31 -2163 0
2165 32 -2164 0
-2166 2159 0
-2166 -2165 0
2167 -25 -27 0
2168 28 -2167 0
2169 -29 -2168 0
2170 -30 -2169 0
2171 -31 -2170 0
2172 -32 -2171 0
-2173 2166 0
-2173 -2172 0
2174 -25 26 0
2175 -27 -2174 0
2176 29 -2175 0
2177 30 -2176 0
2178 -31 -2177 0
2179 -32 -2178 0
-2180 2173 0
-2180 -2179 0
2181 -25 26 0
2182 -27 -2181 0
2183 28 -2182 0
2184 29 -2183 0
2185 -30 -2184 0
2186 32 -2185 0
-2187 2180 0
-2187 -2186 0
2188 -25 26 0
2189 -27 -2188 0
2190 28 -2189 0
2191 -29 -2190 0
2192 -32 -2191 0
-2193 2187 0
-2193 -2192 0
2194 -25 26 0
2195 -27 -2194 0
2196 -28 -2195 0
2197 30 -2196 0
2198 31 -2197 0
2199 32 -2198 0
-2200 2193 0
-2200 -2199 0
2201 -25 26 0
2202 -27 -2201 0
2203 -28 -2202 0
2204 -30 -2203 0
2205 -31 -2204 0
2206 32 -2205 0
-2207 2200 0
-2207 -2206 0
2208 -25 -26 0
2209 27 -2208 0
2210 -28 -2209 0
2211 29 -2210 0
2212 -30 -2211 0
2213 -32 -2212 0
-2214 2207 0
-2214 -2213 0
2215 -25 -26 0
2216 27 -2215 0
2217 -28 -2216 0
2218 -29 -2217 0
2219 -30 -2218 0
2220 31 -2219 0
2221 -32 -2220 0
-2222 2214 0
-2222 -2221 0
2223 24 26 0
2224 28 -2223 0
2225 29 -2224 0
2226 -30 -2225 0
2227 -31 -2226 0
2228 32 -2227 0
-2229 2222 0
-2229 -2228 0
2230 24 26 0
2231 -28 -2230 0
2232 -30 -2231 0
2233 31 -2232 0
2234 -32 -2233 0
-2235 2229 0
-2235 -2234 0
2236 24 26 0
2237 -28 -2236 0
2238 -29 -2237 0
2239 -31 -2238 0
2240 32 -2239 0
-2241 2235 0
-2241 -2240 0
2242 24 26 0
2243 27 -2242 0
2244 29 -2243 0
2245 -30 -2244 0
2246 31 -2245 0
2247 -32 -2246 0
-2248 2241 0
-2248 -2247 0
2249 24 26 0
2250 27 -2249 0
2251 -29 -2250 0
2252 30 -2251 0
2253 -31 -2252 0
2254 32 -2253 0
-2255 2248 0
-2255 -2254 0
2256 24 26 0
2257 27 -2256 0
2258 28 -2257 0
2259 -29 -2258 0
2260 -30 -2259 0
2261 31 -2260 0
2262 32 -2261 0
-2263 2255 0
-2263 -2262 0
2264 24 26 0
2265 27 -2264 0
2266 -28 -2265 0
2267 30 -2266 0
2268 -31 -2267 0
2269 32 -2268 0
-2270 2263 0
-2270 -2269 0
2271 24 26 0
2272 27 -2271 0
2273 -28 -2272 0
2274 29 -2273 0
2275 -30 -2274 0
2276 -32 -2275 0
-2277 2270 0
-2277 -2276 0
2278 24 26 0
2279 27 -2278 0
2280 -28 -2279 0
2281 -29 -2280 0
2282 31 -2281 0
2283 -32 -2282 0
-2284 2277 0
-2284 -2283 0
2285 24 -26 0
2286 -27 -2285 0
2287 28 -2286 0
2288 29 -2287 0
2289 -30 -2288 0
2290 -31 -2289 0
2291 -32 -2290 0
-2292 2284 0
-2292 -2291 0
2293 24 25 0
2294 27 -2293 0
2295 -29 -2294 0
2296 30 -2295 0
2297 31 -2296 0
2298 32 -2297 0
-2299 2292 0
-2299 -2298 0
2300 24 25 0
2301 27 -2300 0
2302 -29 -2301 0
2303 30 -2302 0
2304 -31 -2303 0
2305 -32 -2304 0
-2306 2299 0
-2306 -2305 0
2307 24 25 0
2308 27 -2307 0
2309 28 -2308 0
2310 -30 -2309 0
2311 31 -2310 0
2312 -32 -2311 0
-2313 2306 0
-2313 -2312 0
2314 24 25 0
2315 27 -2314 0
2316 28 -2315 0
2317 29 -2316 0
2318 -30 -2317 0
2319 -32 -2318 0
-2320 2313 0
-2320 -2319 0
2321 24 25 0
2322 27 -2321 0
2323 -28 -2322 0
2324 30 -2323 0
2325 -31 -2324 0
2326 -32 -2325 0
-2327 2320 0
-2327 -2326 0
2328 24 25 0
2329 27 -2328 0
2330 -28 -2329 0
2331 29 -2330 0
2332 30 -2331 0
2333 -32 -2332 0
-2334 2327 0
-2334 -2333 0
2335 24 25 0
2336 27 -2335 0
2337 -28 -2336 0
2338 29 -2337 0
2339 -30 -2338 0
2340 32 -2339 0
-2341 2334 0
-2341 -2340 0
2342 24 25 0
2343 27 -2342 0
2344 -28 -2343 0
2345 -29 -2344 0
2346 31 -2345 0
2347 32 -2346 0
-2348 2341 0
-2348 -2347 0
2349 24 25 0
2350 -27 -2349 0
2351 28 -2350 0
2352 29 -2351 0
2353 30 -2352 0
2354 -31 -2353 0
2355 -32 -2354 0
-2356 2348 0
-2356 -2355 0
2357 24 25 0
2358 26 -2357 0
2359 29 -2358 0
2360 -30 -2359 0
2361 31 -2360 0
2362 -32 -2361 0
-2363 2356 0
-2363 -2362 0
2364 24 25 0
2365 26 -2364 0
2366 28 -2365 0
2367 -29 -2366 0
2368 31 -2367 0
2369 32 -2368 0
-2370 2363 0
-2370 -2369 0
2371 24 25 0
2372 26 -2371 0
2373 28 -2372 0
2374 -29 -2373 0
2375 30 -2374 0
2376 32 -2375 0
-2377 2370 0
-2377 -2376 0
2378 24 25 0
2379 26 -2378 0
2380 -28 -2379 0
2381 31 -2380 0
2382 -32 -2381 0
-2383 2377 0
-2383 -2382 0
2384 24 25 0
2385 26 -2384 0
2386 -28 -2385 0
2387 30 -2386 0
2388 -31 -2387 0
2389 32 -2388 0
-2390 2383 0
-2390 -2389 0
2391 24 25 0
2392 26 -2391 0
2393 27 -2392 0
2394 -31 -2393 0
-2395 2390 0
-2395 -2394 0
2396 24 25 0
2397 26 -2396 0
2398 27 -2397 0
2399 -30 -2398 0
-2400 2395 0
-2400 -2399 0
2401 24 25 0
2402 26 -2401 0
2403 27 -2402 0
2404 -29 -2403 0
-2405 2400 0
-2405 -2404 0
2406 24 25 0
2407 26 -2406 0
2408 27 -2407 0
2409 -28 -2408 0
-2410 2405 0
-2410 -2409 0
2411 24 25 0
2412 -26 -2411 0
2413 -28 -2412 0
2414 30 -2413 0
2415 -31 -2414 0
2416 -32 -2415 0
-2417 2410 0
-2417 -2416 0
2418 24 25 0
2419 -26 -2418 0
2420 -28 -2419 0
2421 29 -2420 0
2422 -30 -2421 0
2423 32 -2422 0
-2424 2417 0
-2424 -2423 0
2425 24 25 0
2426 -26 -2425 0
2427 -28 -2426 0
2428 -29 -2427 0
2429 31 -2428 0
2430 32 -2429 0
-2431 2424 0
-2431 -2430 0
2432 24 25 0
2433 -26 -2432 0
2434 -27 -2433 0
2435 30 -2434 0
2436 -31 -2435 0
2437 -32 -2436 0
-2438 2431 0
-2438 -2437 0
2439 24 25 0
2440 -26 -2439 0
2441 -27 -2440 0
2442 29 -2441 0
2443 -30 -2442 0
2444 31 -2443 0
2445 32 -2444 0
-2446 2438 0
-2446 -2445 0
2447 24 25 0
2448 -26 -2447 0
2449 -27 -2448 0
2450 28 -2449 0
2451 29 -2450 0
2452 -31 -2451 0
2453 -32 -2452 0
-2454 2446 0
-2454 -2453 0
2455 24 25 0
2456 -26 -2455 0
2457 -27 -2456 0
2458 28 -2457 0
2459 -29 -2458 0
2460 31 -2459 0
2461 -32 -2460 0
-2462 2454 0
-2462 -2461 0
2463 24 25 0
2464 -26 -2463 0
2465 -27 -2464 0
2466 -28 -2465 0
2467 31 -2466 0
2468 32 -2467 0
-2469 2462 0
-2469 -2468 0
2470 24 -25 0
2471 28 -2470 0
2472 -29 -2471 0
2473 -30 -2472 0
2474 -31 -2473 0
2475 -32 -2474 0
-2476 2469 0
-2476 -2475 0
2477 24 -25 0
2478 -28 -2477 0
2479 -29 -2478 0
2480 -31 -2479 0
2481 32 -2480 0
-2482 2476 0
-2482 -2481 0
2483 24 -25 0
2484 -28 -2483 0
2485 -29 -2484 0
2486 -30 -2485 0
2487 31 -2486 0
2488 -32 -2487 0
-2489 2482 0
-2489 -2488 0
2490 24 -25 0
2491 27 -2490 0
2492 -29 -2491 0
2493 30 -2492 0
2494 -31 -2493 0
2495 32 -2494 0
-2496 2489 0
-2496 -2495 0
2497 24 -25 0
2498 27 -2497 0
2499 28 -2498 0
2500 29 -2499 0
2501 30 -2500 0
2502 -31 -2501 0
2503 -32 -2502 0
-2504 2496 0
-2504 -2503 0
2505 24 -25 0
2506 27 -2505 0
2507 28 -2506 0
2508 29 -2507 0
2509 -30 -2508 0
2510 -31 -2509 0
2511 32 -2510 0
-2512 2504 0
-2512 -2511 0
2513 24 -25 0
2514 27 -2513 0
2515 28 -2514 0
2516 -29 -2515 0
2517 30 -2516 0
2518 31 -2517 0
2519 -32 -2518 0
-2520 2512 0
-2520 -2519 0
2521 24 -25 0
2522 27 -2521 0
2523 -28 -2522 0
2524 -30 -2523 0
2525 31 -2524 0
2526 -32 -2525 0
-2527 2520 0
-2527 -2526 0
2528 24 -25 0
2529 27 -2528 0
2530 -28 -2529 0
2531 29 -2530 0
2532 30 -2531 0
2533 31 -2532 0
2534 32 -2533 0
-2535 2527 0
-2535 -2534 0
2536 24 -25 0
2537 27 -2536 0
2538 -28 -2537 0
2539 29 -2538 0
2540 -30 -2539 0
2541 -32 -2540 0
-2542 2535 0
-2542 -2541 0
2543 24 -25 0
2544 26 -2543 0
2545 -27 -2544 0
2546 -28 -2545 0
2547 -29 -2546 0
2548 30 -2547 0
2549 32 -2548 0
-2550 2542 0
-2550 -2549 0
2551 24 -25 0
2552 -26 -2551 0
2553 -28 -2552 0
2554 29 -2553 0
2555 -30 -2554 0
2556 -32 -2555 0
-2557 2550 0
-2557 -2556 0
2558 24 -25 0
2559 -26 -2558 0
2560 27 -2559 0
2561 28 -2560 0
2562 29 -2561 0
2563 -30 -2562 0
2564 32 -2563 0
-2565 2557 0
-2565 -2564 0
2566 24 -25 0
2567 -26 -2566 0
2568 27 -2567 0
2569 28 -2568 0
2570 -29 -2569 0
2571 31 -2570 0
2572 -32 -2571 0
-2573 2565 0
-2573 -2572 0
2574 24 -25 0
2575 -26 -2574 0
2576 27 -2575 0
2577 -28 -2576 0
2578 29 -2577 0
2579 -31 -2578 0
2580 -32 -2579 0
-2581 2573 0
-2581 -2580 0
2582 24 -25 0
2583 -26 -2582 0
2584 27 -2583 0
2585 -28 -2584 0
2586 -29 -2585 0
2587 30 -2586 0
2588 32 -2587 0
-2589 2581 0
-2589 -2588 0
2590 24 -25 0
2591 -26 -2590 0
2592 -27 -2591 0
2593 30 -2592 0
2594 -31 -2593 0
2595 32 -2594 0
-2596 2589 0
-2596 -2595 0
2597 24 -25 0
2598 -26 -2597 0
2599 -27 -2598 0
2600 29 -2599 0
2601 -30 -2600 0
2602 -32 -2601 0
-2603 2596 0
-2603 -2602 0
2604 24 -25 0
2605 -26 -2604 0
2606 -27 -2605 0
2607 28 -2606 0
2608 -29 -2607 0
2609 31 -2608 0
2610 32 -2609 0
-2611 2603 0
-2611 -2610 0
2612 24 -25 0
2613 -26 -2612 0
2614 -27 -2613 0
2615 -28 -2614 0
2616 31 -2615 0
2617 -32 -2616 0
-2618 2611 0
-2618 -2617 0
2619 -24 27 0
2620 28 -2619 0
2621 29 -2620 0
2622 30 -2621 0
2623 -31 -2622 0
2624 32 -2623 0
-2625 2618 0
-2625 -2624 0
2626 -24 27 0
2627 28 -2626 0
2628 29 -2627 0
2629 -30 -2628 0
2630 -31 -2629 0
2631 -32 -2630 0
-2632 2625 0
-2632 -2631 0
2633 -24 27 0
2634 28 -2633 0
2635 -29 -2634 0
2636 -30 -2635 0
2637 -31 -2636 0
2638 32 -2637 0
-2639 2632 0
-2639 -2638 0
2640 -24 27 0
2641 -28 -2640 0
2642 29 -2641 0
2643 30 -2642 0
2644 31 -2643 0
2645 -32 -2644 0
-2646 2639 0
-2646 -2645 0
2647 -24 27 0
2648 -28 -2647 0
2649 -29 -2648 0
2650 -30 -2649 0
2651 -31 -2650 0
2652 -32 -2651 0
-2653 2646 0
-2653 -2652 0
2654 -24 26 0
2655 27 -2654 0
2656 -29 -2655 0
2657 30 -2656 0
2658 -31 -2657 0
2659 -32 -2658 0
-2660 2653 0
-2660 -2659 0
2661 -24 26 0
2662 27 -2661 0
2663 -28 -2662 0
2664 29 -2663 0
2665 -30 -2664 0
2666 32 -2665 0
-2667 2660 0
-2667 -2666 0
2668 -24 26 0
2669 27 -2668 0
2670 -28 -2669 0
2671 -29 -2670 0
2672 -31 -2671 0
2673 -32 -2672 0
-2674 2667 0
-2674 -2673 0
2675 -24 26 0
2676 27 -2675 0
2677 -28 -2676 0
2678 -29 -2677 0
2679 -30 -2678 0
2680 31 -2679 0
2681 32 -2680 0
-2682 2674 0
-2682 -2681 0
2683 -24 26 0
2684 -27 -2683 0
2685 29 -2684 0
2686 30 -2685 0
2687 -31 -2686 0
2688 -32 -2687 0
-2689 2682 0
-2689 -2688 0
2690 -24 26 0
2691 -27 -2690 0
2692 28 -2691 0
2693 29 -2692 0
2694 -30 -2693 0
2695 32 -2694 0
-2696 2689 0
-2696 -2695 0
2697 -24 26 0
2698 -27 -2697 0
2699 28 -2698 0
2700 -29 -2699 0
2701 30 -2700 0
2702 31 -2701 0
2703 -32 -2702 0
-2704 2696 0
-2704 -2703 0
2705 -24 26 0
2706 -27 -2705 0
2707 -28 -2706 0
2708 29 -2707 0
2709 30 -2708 0
2710 31 -2709 0
2711 32 -2710 0
-2712 2704 0
-2712 -2711 0
2713 -24 -26 0
2714 27 -2713 0
2715 29 -2714 0
2716 30 -2715 0
2717 -31 -2716 0
2718 32 -2717 0
-2719 2712 0
-2719 -2718 0
2720 -24 -26 0
2721 27 -2720 0
2722 29 -2721 0
2723 -30 -2722 0
2724 -32 -2723 0
-2725 2719 0
-2725 -2724 0
2726 -24 -26 0
2727 27 -2726 0
2728 28 -2727 0
2729 -29 -2728 0
2730 32 -2729 0
-2731 2725 0
-2731 -2730 0
2732 -24 -26 0
2733 27 -2732 0
2734 -28 -2733 0
2735 30 -2734 0
2736 31 -2735 0
2737 -32 -2736 0
-2738 2731 0
-2738 -2737 0
2739 -24 -26 0
2740 27 -2739 0
2741 -28 -2740 0
2742 -30 -2741 0
2743 -31 -2742 0
2744 -32 -2743 0
-2745 2738 0
-2745 -2744 0
2746 -24 -26 0
2747 27 -2746 0
2748 -28 -2747 0
2749 29 -2748 0
2750 31 -2749 0
2751 -32 -2750 0
-2752 2745 0
-2752 -2751 0
2753 -24 -26 0
2754 -27 -2753 0
2755 -29 -2754 0
2756 30 -2755 0
2757 -31 -2756 0
2758 -32 -2757 0
-2759 2752 0
-2759 -2758 0
2760 -24 -26 0
2761 -27 -2760 0
2762 -28 -2761 0
2763 -30 -2762 0
2764 31 -2763 0
2765 32 -2764 0
-2766 2759 0
-2766 -2765 0
2767 -24 -26 0
2768 -27 -2767 0
2769 -28 -2768 0
2770 -29 -2769 0
2771 -31 -2770 0
2772 -32 -2771 0
-2773 2766 0
-2773 -2772 0
2774 -24 25 0
2775 -27 -2774 0
2776 -28 -2775 0
2777 29 -2776 0
2778 -30 -2777 0
2779 -31 -2778 0
2780 -32 -2779 0
-2781 2773 0
-2781 -2780 0
2782 -24 25 0
2783 26 -2782 0
2784 -27 -2783 0
2785 28 -2784 0
2786 -30 -2785 0
2787 31 -2786 0
2788 32 -2787 0
-2789 2781 0
-2789 -2788 0
2790 -24 25 0
2791 26 -2790 0
2792 -27 -2791 0
2793 -28 -2792 0
2794 29 -2793 0
2795 -31 -2794 0
2796 -32 -2795 0
-2797 2789 0
-2797 -2796 0
2798 -24 25 0
2799 -26 -2798 0
2800 29 -2799 0
2801 30 -2800 0
2802 -31 -2801 0
2803 32 -2802 0
-2804 2797 0
-2804 -2803 0
2805 -24 25 0
2806 -26 -2805 0
2807 29 -2806 0
2808 -30 -2807 0
2809 -31 -2808 0
2810 -32 -2809 0
-2811 2804 0
-2811 -2810 0
2812 -24 25 0
2813 -26 -2812 0
2814 -29 -2813 0
2815 -30 -2814 0
2816 31 -2815 0
2817 32 -2816 0
-2818 2811 0
-2818 -2817 0
2819 -24 25 0
2820 -26 -2819 0
2821 28 -2820 0
2822 29 -2821 0
2823 -30 -2822 0
2824 -32 -2823 0
-2825 2818 0
-2825 -2824 0
2826 -24 25 0
2827 -26 -2826 0
2828 28 -2827 0
2829 -29 -2828 0
2830 31 -2829 0
2831 32 -2830 0
-2832 2825 0
-2832 -2831 0
2833 -24 25 0
2834 -26 -2833 0
2835 -28 -2834 0
2836 30 -2835 0
2837 31 -2836 0
2838 -32 -2837 0
-2839 2832 0
-2839 -2838 0
2840 -24 25 0
2841 -26 -2840 0
2842 -28 -2841 0
2843 -29 -2842 0
2844 30 -2843 0
2845 -32 -2844 0
-2846 2839 0
-2846 -2845 0
2847 -24 -25 0
2848 27 -2847 0
2849 29 -2848 0
2850 30 -2849 0
2851 -31 -2850 0
2852 32 -2851 0
-2853 2846 0
-2853 -2852 0
2854 -24 -25 0
2855 27 -2854 0
2856 28 -2855 0
2857 29 -2856 0
2858 -30 -2857 0
2859 -32 -2858 0
-2860 2853 0
-2860 -2859 0
2861 -24 -25 0
2862 27 -2861 0
2863 28 -2862 0
2864 -29 -2863 0
2865 30 -2864 0
2866 31 -2865 0
2867 32 -2866 0
-2868 2860 0
-2868 -2867 0
2869 -24 -25 0
2870 -27 -2869 0
2871 30 -2870 0
2872 -31 -2871 0
2873 -32 -2872 0
-2874 2868 0
-2874 -2873 0
2875 -24 -25 0
2876 -27 -2875 0
2877 29 -2876 0
2878 -30 -2877 0
2879 32 -2878 0
-2880 2874 0
-2880 -2879 0
2881 -24 -25 0
2882 -27 -2881 0
2883 28 -2882 0
2884 -29 -2883 0
2885 -32 -2884 0
-2886 2880 0
-2886 -2885 0
2887 -24 -25 0
2888 -27 -2887 0
2889 -28 -2888 0
2890 29 -2889 0
2891 31 -2890 0
2892 32 -2891 0
-2893 2886 0
-2893 -2892 0
2894 -24 -25 0
2895 26 -2894 0
2896 -28 -2895 0
2897 29 -2896 0
2898 -30 -2897 0
2899 32 -2898 0
-2900 2893 0
-2900 -2899 0
2901 -24 -25 0
2902 26 -2901 0
2903 27 -2902 0
2904 28 -2903 0
2905 -30 -2904 0
2906 31 -2905 0
2907 -32 -2906 0
-2908 2900 0
-2908 -2907 0
2909 -24 -25 0
2910 26 -2909 0
2911 27 -2910 0
2912 -28 -2911 0
2913 29 -2912 0
2914 -31 -2913 0
2915 32 -2914 0
-2916 2908 0
-2916 -2915 0
2917 -24 -25 0
2918 26 -2917 0
2919 27 -2918 0
2920 -28 -2919 0
2921 -29 -2920 0
2922 30 -2921 0
2923 -32 -2922 0
-2924 2916 0
-2924 -2923 0
2925 -24 -25 0
2926 -26 -2925 0
2927 27 -2926 0
2928 30 -2927 0
2929 -31 -2928 0
2930 32 -2929 0
-2931 2924 0
-2931 -2930 0
2932 -24 -25 0
2933 -26 -2932 0
2934 27 -2933 0
2935 -28 -2934 0
2936 31 -2935 0
2937 -32 -2936 0
-2938 2931 0
-2938 -2937 0
2939 -24 -25 0
2940 -26 -2939 0
2941 -27 -2940 0
2942 -28 -2941 0
2943 31 -2942 0
2944 32 -2943 0
-2945 2938 0
-2945 -2944 0
-2946 1 0
-2946 2945 0
-2947 1 0
-2947 1 0
-2948 1014 0
-2948 2947 0
-2949 1 0
-2949 2948 0
-2950 1989 0
-2950 2949 0
-2951 1 0
-2951 2950 0
-2952 2946 0
-2952 2951 0
-2953 1032 0
-2953 2952 0
-2954 1 0
-2954 2953 0
-2955 -1 0
-2955 2954 0
2955 0
