p cnf 3004 3551
1 0
-37 -2 0
-37 -3 0
37 2 3 0
-38 -4 0
-38 -5 0
38 4 5 0
-39 37 0
-39 38 0
39 -37 -38 0
-40 -9 8 0
-40 9 -8 0
40 -9 -8 0
40 9 8 0
-41 -39 40 0
-41 39 -2 0
41 -39 -40 0
41 39 2 0
-42 -39 -6 0
-42 39 -3 0
42 -39 6 0
42 39 3 0
-43 -39 -7 0
-43 39 -4 0
43 -39 7 0
43 39 4 0
-44 -39 -8 0
-44 39 -5 0
44 -39 8 0
44 39 5 0
-45 -39 -10 0
-45 39 -2 0
45 -39 10 0
45 39 2 0
-46 -39 -11 0
-46 39 -3 0
46 -39 11 0
46 39 3 0
-47 -39 -12 0
-47 39 -4 0
47 -39 12 0
47 39 4 0
-48 -39 -13 0
-48 39 -5 0
48 -39 13 0
48 39 5 0
-49 -10 0
-49 -11 0
49 10 11 0
-50 -12 0
-50 -13 0
50 12 13 0
-51 49 0
-51 50 0
51 -49 -50 0
-52 40 -10 0
-52 -40 10 0
52 40 10 0
52 -40 -10 0
-53 -11 -6 0
-53 11 6 0
53 -11 6 0
53 11 -6 0
-54 -52 0
-54 -53 0
54 52 53 0
-55 -12 -7 0
-55 12 7 0
55 -12 7 0
55 12 -7 0
-56 -13 -8 0
-56 13 8 0
56 -13 8 0
56 13 -8 0
-57 -55 0
-57 -56 0
57 55 56 0
-58 54 0
-58 57 0
58 -54 -57 0
-59 -51 0
-59 58 0
59 51 -58 0
-60 39 0
-60 -59 0
60 -39 59 0
-61 -14 0
-61 60 0
61 14 -60 0
62 8 -9 0
63 10 -62 0
64 11 -63 0
65 12 -64 0
66 -13 -65 0
67 8 -9 0
68 10 -67 0
69 11 -68 0
70 -12 -69 0
71 -13 -70 0
-72 14 -71 0
-72 -14 -66 0
73 8 -9 0
74 10 -73 0
75 -11 -74 0
76 -12 -75 0
77 -13 -76 0
78 -14 -77 0
-79 72 0
-79 -78 0
80 8 -9 0
81 -10 -80 0
82 -11 -81 0
83 -12 -82 0
84 13 -83 0
85 -14 -84 0
-86 79 0
-86 -85 0
87 8 -9 0
88 -10 -87 0
89 -11 -88 0
90 -12 -89 0
91 -13 -90 0
92 14 -91 0
-93 86 0
-93 -92 0
94 7 9 0
95 10 -94 0
96 11 -95 0
97 12 -96 0
98 -13 -97 0
99 14 -98 0
-100 93 0
-100 -99 0
101 7 9 0
102 10 -101 0
103 11 -102 0
104 -12 -103 0
105 -13 -104 0
106 -14 -105 0
-107 100 0
-107 -106 0
108 7 9 0
109 -10 -108 0
110 -11 -109 0
111 -13 -110 0
112 -14 -111 0
-113 107 0
-113 -112 0
114 7 9 0
115 -10 -114 0
116 -11 -115 0
117 -12 -116 0
118 13 -117 0
119 14 -118 0
-120 113 0
-120 -119 0
121 7 8 0
122 9 -121 0
123 11 -122 0
124 -12 -123 0
125 13 -124 0
126 14 -125 0
-127 120 0
-127 -126 0
128 7 8 0
129 9 -128 0
130 10 -129 0
131 -11 -130 0
132 13 -131 0
133 -14 -132 0
-134 127 0
-134 -133 0
135 7 8 0
136 9 -135 0
137 10 -136 0
138 -11 -137 0
139 12 -138 0
140 -14 -139 0
-141 134 0
-141 -140 0
142 7 8 0
143 9 -142 0
144 -10 -143 0
145 12 -144 0
146 -13 -145 0
147 -14 -146 0
-148 141 0
-148 -147 0
149 7 8 0
150 9 -149 0
151 -10 -150 0
152 11 -151 0
153 12 -152 0
154 -14 -153 0
-155 148 0
-155 -154 0
156 7 8 0
157 9 -156 0
158 -10 -157 0
159 11 -158 0
160 -12 -159 0
161 14 -160 0
-162 155 0
-162 -161 0
163 7 8 0
164 9 -163 0
165 -10 -164 0
166 -11 -165 0
167 13 -166 0
168 14 -167 0
-169 162 0
-169 -168 0
170 7 8 0
171 -9 -170 0
172 -11 -171 0
173 12 -172 0
174 -13 -173 0
175 14 -174 0
-176 169 0
-176 -175 0
177 7 8 0
178 -9 -177 0
179 -10 -178 0
180 11 -179 0
181 -12 -180 0
182 -14 -181 0
-183 176 0
-183 -182 0
184 7 8 0
185 -9 -184 0
186 -10 -185 0
187 -11 -186 0
188 13 -187 0
189 -14 -188 0
-190 183 0
-190 -189 0
191 7 8 0
192 -9 -191 0
193 -10 -192 0
194 -11 -193 0
195 -13 -194 0
196 14 -195 0
-197 190 0
-197 -196 0
198 7 -8 0
199 10 -198 0
200 11 -199 0
201 -12 -200 0
202 -13 -201 0
203 -14 -202 0
-204 197 0
-204 -203 0
205 7 -8 0
206 10 -205 0
207 -11 -206 0
208 -12 -207 0
209 -13 -208 0
210 14 -209 0
-211 204 0
-211 -210 0
212 7 -8 0
213 -10 -212 0
214 -11 -213 0
215 -13 -214 0
216 -14 -215 0
-217 211 0
-217 -216 0
218 7 -8 0
219 -10 -218 0
220 -11 -219 0
221 -12 -220 0
222 13 -221 0
223 14 -222 0
-224 217 0
-224 -223 0
225 7 -8 0
226 -9 -225 0
227 -11 -226 0
228 12 -227 0
229 -13 -228 0
230 -14 -229 0
-231 224 0
-231 -230 0
232 7 -8 0
233 -9 -232 0
234 -10 -233 0
235 -12 -234 0
236 13 -235 0
237 14 -236 0
-238 231 0
-238 -237 0
239 -7 -9 0
240 10 -239 0
241 -11 -240 0
242 -12 -241 0
243 -13 -242 0
244 -14 -243 0
-245 238 0
-245 -244 0
246 -7 8 0
247 -9 -246 0
248 11 -247 0
249 12 -248 0
250 -13 -249 0
251 -14 -250 0
-252 245 0
-252 -251 0
253 -7 8 0
254 -9 -253 0
255 10 -254 0
256 11 -255 0
257 -12 -256 0
258 14 -257 0
-259 252 0
-259 -258 0
260 -7 8 0
261 -9 -260 0
262 10 -261 0
263 -11 -262 0
264 -14 -263 0
-265 259 0
-265 -264 0
266 -7 8 0
267 -9 -266 0
268 -10 -267 0
269 12 -268 0
270 13 -269 0
271 14 -270 0
-272 265 0
-272 -271 0
273 -7 8 0
274 -9 -273 0
275 -10 -274 0
276 -12 -275 0
277 -13 -276 0
278 14 -277 0
-279 272 0
-279 -278 0
280 -7 -8 0
281 9 -280 0
282 -10 -281 0
283 11 -282 0
284 -12 -283 0
285 -14 -284 0
-286 279 0
-286 -285 0
287 -7 -8 0
288 9 -287 0
289 -10 -288 0
290 -11 -289 0
291 -12 -290 0
292 13 -291 0
293 -14 -292 0
-294 286 0
-294 -293 0
295 6 8 0
296 10 -295 0
297 11 -296 0
298 -12 -297 0
299 -13 -298 0
300 14 -299 0
-301 294 0
-301 -300 0
302 6 8 0
303 -10 -302 0
304 -12 -303 0
305 13 -304 0
306 -14 -305 0
-307 301 0
-307 -306 0
308 6 8 0
309 -10 -308 0
310 -11 -309 0
311 -13 -310 0
312 14 -311 0
-313 307 0
-313 -312 0
314 6 8 0
315 9 -314 0
316 11 -315 0
317 -12 -316 0
318 13 -317 0
319 -14 -318 0
-320 313 0
-320 -319 0
321 6 8 0
322 9 -321 0
323 -11 -322 0
324 12 -323 0
325 -13 -324 0
326 14 -325 0
-327 320 0
-327 -326 0
328 6 8 0
329 9 -328 0
330 10 -329 0
331 -11 -330 0
332 -12 -331 0
333 13 -332 0
334 14 -333 0
-335 327 0
-335 -334 0
336 6 8 0
337 9 -336 0
338 -10 -337 0
339 12 -338 0
340 -13 -339 0
341 14 -340 0
-342 335 0
-342 -341 0
343 6 8 0
344 9 -343 0
345 -10 -344 0
346 11 -345 0
347 -12 -346 0
348 -14 -347 0
-349 342 0
-349 -348 0
350 6 8 0
351 9 -350 0
352 -10 -351 0
353 -11 -352 0
354 13 -353 0
355 -14 -354 0
-356 349 0
-356 -355 0
357 6 -8 0
358 -9 -357 0
359 10 -358 0
360 11 -359 0
361 -12 -360 0
362 -13 -361 0
363 -14 -362 0
-364 356 0
-364 -363 0
365 6 7 0
366 9 -365 0
367 -11 -366 0
368 12 -367 0
369 13 -368 0
370 14 -369 0
-371 364 0
-371 -370 0
372 6 7 0
373 9 -372 0
374 -11 -373 0
375 12 -374 0
376 -13 -375 0
377 -14 -376 0
-378 371 0
-378 -377 0
379 6 7 0
380 9 -379 0
381 10 -380 0
382 -12 -381 0
383 13 -382 0
384 -14 -383 0
-385 378 0
-385 -384 0
386 6 7 0
387 9 -386 0
388 10 -387 0
389 11 -388 0
390 -12 -389 0
391 -14 -390 0
-392 385 0
-392 -391 0
393 6 7 0
394 9 -393 0
395 -10 -394 0
396 12 -395 0
397 -13 -396 0
398 -14 -397 0
-399 392 0
-399 -398 0
400 6 7 0
401 9 -400 0
402 -10 -401 0
403 11 -402 0
404 12 -403 0
405 -14 -404 0
-406 399 0
-406 -405 0
407 6 7 0
408 9 -407 0
409 -10 -408 0
410 11 -409 0
411 -12 -410 0
412 14 -411 0
-413 406 0
-413 -412 0
414 6 7 0
415 9 -414 0
416 -10 -415 0
417 -11 -416 0
418 13 -417 0
419 14 -418 0
-420 413 0
-420 -419 0
421 6 7 0
422 -9 -421 0
423 10 -422 0
424 11 -423 0
425 12 -424 0
426 -13 -425 0
427 -14 -426 0
-428 420 0
-428 -427 0
429 6 7 0
430 8 -429 0
431 11 -430 0
432 -12 -431 0
433 13 -432 0
434 -14 -433 0
-435 428 0
-435 -434 0
436 6 7 0
437 8 -436 0
438 10 -437 0
439 -11 -438 0
440 13 -439 0
441 14 -440 0
-442 435 0
-442 -441 0
443 6 7 0
444 8 -443 0
445 10 -444 0
446 -11 -445 0
447 12 -446 0
448 14 -447 0
-449 442 0
-449 -448 0
450 6 7 0
451 8 -450 0
452 -10 -451 0
453 13 -452 0
454 -14 -453 0
-455 449 0
-455 -454 0
456 6 7 0
457 8 -456 0
458 -10 -457 0
459 12 -458 0
460 -13 -459 0
461 14 -460 0
-462 455 0
-462 -461 0
463 6 7 0
464 8 -463 0
465 9 -464 0
466 -13 -465 0
-467 462 0
-467 -466 0
468 6 7 0
469 8 -468 0
470 9 -469 0
471 -12 -470 0
-472 467 0
-472 -471 0
473 6 7 0
474 8 -473 0
475 9 -474 0
476 -11 -475 0
-477 472 0
-477 -476 0
478 6 7 0
479 8 -478 0
480 9 -479 0
481 -10 -480 0
-482 477 0
-482 -481 0
483 6 7 0
484 -8 -483 0
485 -10 -484 0
486 12 -485 0
487 -13 -486 0
488 -14 -487 0
-489 482 0
-489 -488 0
490 6 7 0
491 -8 -490 0
492 -10 -491 0
493 11 -492 0
494 -12 -493 0
495 14 -494 0
-496 489 0
-496 -495 0
497 6 7 0
498 -8 -497 0
499 -10 -498 0
500 -11 -499 0
501 13 -500 0
502 14 -501 0
-503 496 0
-503 -502 0
504 6 7 0
505 -8 -504 0
506 -9 -505 0
507 12 -506 0
508 -13 -507 0
509 -14 -508 0
-510 503 0
-510 -509 0
511 6 7 0
512 -8 -511 0
513 -9 -512 0
514 11 -513 0
515 -12 -514 0
516 13 -515 0
517 14 -516 0
-518 510 0
-518 -517 0
519 6 7 0
520 -8 -519 0
521 -9 -520 0
522 10 -521 0
523 11 -522 0
524 -13 -523 0
525 -14 -524 0
-526 518 0
-526 -525 0
527 6 7 0
528 -8 -527 0
529 -9 -528 0
530 10 -529 0
531 -11 -530 0
532 13 -531 0
533 -14 -532 0
-534 526 0
-534 -533 0
535 6 7 0
536 -8 -535 0
537 -9 -536 0
538 -10 -537 0
539 13 -538 0
540 14 -539 0
-541 534 0
-541 -540 0
542 6 -7 0
543 10 -542 0
544 -11 -543 0
545 -12 -544 0
546 -13 -545 0
547 -14 -546 0
-548 541 0
-548 -547 0
549 6 -7 0
550 -10 -549 0
551 -11 -550 0
552 -13 -551 0
553 14 -552 0
-554 548 0
-554 -553 0
555 6 -7 0
556 -10 -555 0
557 -11 -556 0
558 -12 -557 0
559 13 -558 0
560 -14 -559 0
-561 554 0
-561 -560 0
562 6 -7 0
563 9 -562 0
564 -11 -563 0
565 12 -564 0
566 -13 -565 0
567 14 -566 0
-568 561 0
-568 -567 0
569 6 -7 0
570 9 -569 0
571 10 -570 0
572 11 -571 0
573 12 -572 0
574 -13 -573 0
575 -14 -574 0
-576 568 0
-576 -575 0
577 6 -7 0
578 9 -577 0
579 10 -578 0
580 11 -579 0
581 -12 -580 0
582 -13 -581 0
583 14 -582 0
-584 576 0
-584 -583 0
585 6 -7 0
586 9 -585 0
587 10 -586 0
588 -11 -587 0
589 12 -588 0
590 13 -589 0
591 -14 -590 0
-592 584 0
-592 -591 0
593 6 -7 0
594 9 -593 0
595 -10 -594 0
596 -12 -595 0
597 13 -596 0
598 -14 -597 0
-599 592 0
-599 -598 0
600 6 -7 0
601 9 -600 0
602 -10 -601 0
603 11 -602 0
604 12 -603 0
605 13 -604 0
606 14 -605 0
-607 599 0
-607 -606 0
608 6 -7 0
609 9 -608 0
610 -10 -609 0
611 11 -610 0
612 -12 -611 0
613 -14 -612 0
-614 607 0
-614 -613 0
615 6 -7 0
616 8 -615 0
617 -9 -616 0
618 -10 -617 0
619 -11 -618 0
620 12 -619 0
621 14 -620 0
-622 614 0
-622 -621 0
623 6 -7 0
624 -8 -623 0
625 -10 -624 0
626 11 -625 0
627 -12 -626 0
628 -14 -627 0
-629 622 0
-629 -628 0
630 6 -7 0
631 -8 -630 0
632 9 -631 0
633 10 -632 0
634 11 -633 0
635 -12 -634 0
636 14 -635 0
-637 629 0
-637 -636 0
638 6 -7 0
639 -8 -638 0
640 9 -639 0
641 10 -640 0
642 -11 -641 0
643 13 -642 0
644 -14 -643 0
-645 637 0
-645 -644 0
646 6 -7 0
647 -8 -646 0
648 9 -647 0
649 -10 -648 0
650 11 -649 0
651 -13 -650 0
652 -14 -651 0
-653 645 0
-653 -652 0
654 6 -7 0
655 -8 -654 0
656 9 -655 0
657 -10 -656 0
658 -11 -657 0
659 12 -658 0
660 14 -659 0
-661 653 0
-661 -660 0
662 6 -7 0
663 -8 -662 0
664 -9 -663 0
665 12 -664 0
666 -13 -665 0
667 14 -666 0
-668 661 0
-668 -667 0
669 6 -7 0
670 -8 -669 0
671 -9 -670 0
672 11 -671 0
673 -12 -672 0
674 -14 -673 0
-675 668 0
-675 -674 0
676 6 -7 0
677 -8 -676 0
678 -9 -677 0
679 10 -678 0
680 -11 -679 0
681 13 -680 0
682 14 -681 0
-683 675 0
-683 -682 0
684 6 -7 0
685 -8 -684 0
686 -9 -685 0
687 -10 -686 0
688 13 -687 0
689 -14 -688 0
-690 683 0
-690 -689 0
691 -6 9 0
692 10 -691 0
693 11 -692 0
694 12 -693 0
695 -13 -694 0
696 14 -695 0
-697 690 0
-697 -696 0
698 -6 9 0
699 10 -698 0
700 11 -699 0
701 -12 -700 0
702 -13 -701 0
703 -14 -702 0
-704 697 0
-704 -703 0
705 -6 9 0
706 10 -705 0
707 -11 -706 0
708 -12 -707 0
709 -13 -708 0
710 14 -709 0
-711 704 0
-711 -710 0
712 -6 9 0
713 -10 -712 0
714 11 -713 0
715 12 -714 0
716 13 -715 0
717 -14 -716 0
-718 711 0
-718 -717 0
719 -6 9 0
720 -10 -719 0
721 -11 -720 0
722 -12 -721 0
723 -13 -722 0
724 -14 -723 0
-725 718 0
-725 -724 0
726 -6 8 0
727 9 -726 0
728 -11 -727 0
729 12 -728 0
730 -13 -729 0
731 -14 -730 0
-732 725 0
-732 -731 0
733 -6 8 0
734 9 -733 0
735 -10 -734 0
736 11 -735 0
737 -12 -736 0
738 14 -737 0
-739 732 0
-739 -738 0
740 -6 8 0
741 9 -740 0
742 -10 -741 0
743 -11 -742 0
744 -13 -743 0
745 -14 -744 0
-746 739 0
-746 -745 0
747 -6 8 0
748 9 -747 0
749 -10 -748 0
750 -11 -749 0
751 -12 -750 0
752 13 -751 0
753 14 -752 0
-754 746 0
-754 -753 0
755 -6 8 0
756 -9 -755 0
757 11 -756 0
758 12 -757 0
759 -13 -758 0
760 -14 -759 0
-761 754 0
-761 -760 0
762 -6 8 0
763 -9 -762 0
764 10 -763 0
765 11 -764 0
766 -12 -765 0
767 14 -766 0
-768 761 0
-768 -767 0
769 -6 8 0
770 -9 -769 0
771 10 -770 0
772 -11 -771 0
773 12 -772 0
774 13 -773 0
775 -14 -774 0
-776 768 0
-776 -775 0
777 -6 8 0
778 -9 -777 0
779 -10 -778 0
780 11 -779 0
781 12 -780 0
782 13 -781 0
783 14 -782 0
-784 776 0
-784 -783 0
785 -6 -8 0
786 9 -785 0
787 11 -786 0
788 12 -787 0
789 -13 -788 0
790 14 -789 0
-791 784 0
-791 -790 0
792 -6 -8 0
793 9 -792 0
794 11 -793 0
795 -12 -794 0
796 -14 -795 0
-797 791 0
-797 -796 0
798 -6 -8 0
799 9 -798 0
800 10 -799 0
801 -11 -800 0
802 14 -801 0
-803 797 0
-803 -802 0
804 -6 -8 0
805 9 -804 0
806 -10 -805 0
807 12 -806 0
808 13 -807 0
809 -14 -808 0
-810 803 0
-810 -809 0
811 -6 -8 0
812 9 -811 0
813 -10 -812 0
814 -12 -813 0
815 -13 -814 0
816 -14 -815 0
-817 810 0
-817 -816 0
818 -6 -8 0
819 9 -818 0
820 -10 -819 0
821 11 -820 0
822 13 -821 0
823 -14 -822 0
-824 817 0
-824 -823 0
825 -6 -8 0
826 -9 -825 0
827 -11 -826 0
828 12 -827 0
829 -13 -828 0
830 -14 -829 0
-831 824 0
-831 -830 0
832 -6 -8 0
833 -9 -832 0
834 -10 -833 0
835 -12 -834 0
836 13 -835 0
837 14 -836 0
-838 831 0
-838 -837 0
839 -6 -8 0
840 -9 -839 0
841 -10 -840 0
842 -11 -841 0
843 -13 -842 0
844 -14 -843 0
-845 838 0
-845 -844 0
846 -6 7 0
847 -9 -846 0
848 -10 -847 0
849 11 -848 0
850 -12 -849 0
851 -13 -850 0
852 -14 -851 0
-853 845 0
-853 -852 0
854 -6 7 0
855 8 -854 0
856 -9 -855 0
857 10 -856 0
858 -12 -857 0
859 13 -858 0
860 14 -859 0
-861 853 0
-861 -860 0
862 -6 7 0
863 8 -862 0
864 -9 -863 0
865 -10 -864 0
866 11 -865 0
867 -13 -866 0
868 -14 -867 0
-869 861 0
-869 -868 0
870 -6 7 0
871 -8 -870 0
872 11 -871 0
873 12 -872 0
874 -13 -873 0
875 14 -874 0
-876 869 0
-876 -875 0
877 -6 7 0
878 -8 -877 0
879 11 -878 0
880 -12 -879 0
881 -13 -880 0
882 -14 -881 0
-883 876 0
-883 -882 0
884 -6 7 0
885 -8 -884 0
886 -11 -885 0
887 -12 -886 0
888 13 -887 0
889 14 -888 0
-890 883 0
-890 -889 0
891 -6 7 0
892 -8 -891 0
893 10 -892 0
894 11 -893 0
895 -12 -894 0
896 -14 -895 0
-897 890 0
-897 -896 0
898 -6 7 0
899 -8 -898 0
900 10 -899 0
901 -11 -900 0
902 13 -901 0
903 14 -902 0
-904 897 0
-904 -903 0
905 -6 7 0
906 -8 -905 0
907 -10 -906 0
908 12 -907 0
909 13 -908 0
910 -14 -909 0
-911 904 0
-911 -910 0
912 -6 7 0
913 -8 -912 0
914 -10 -913 0
915 -11 -914 0
916 12 -915 0
917 -14 -916 0
-918 911 0
-918 -917 0
919 -6 -7 0
920 9 -919 0
921 11 -920 0
922 12 -921 0
923 -13 -922 0
924 14 -923 0
-925 918 0
-925 -924 0
926 -6 -7 0
927 9 -926 0
928 10 -927 0
929 11 -928 0
930 -12 -929 0
931 -14 -930 0
-932 925 0
-932 -931 0
933 -6 -7 0
934 9 -933 0
935 10 -934 0
936 -11 -935 0
937 12 -936 0
938 13 -937 0
939 14 -938 0
-940 932 0
-940 -939 0
941 -6 -7 0
942 -9 -941 0
943 12 -942 0
944 -13 -943 0
945 -14 -944 0
-946 940 0
-946 -945 0
947 -6 -7 0
948 -9 -947 0
949 11 -948 0
950 -12 -949 0
951 14 -950 0
-952 946 0
-952 -951 0
953 -6 -7 0
954 -9 -953 0
955 10 -954 0
956 -11 -955 0
957 -14 -956 0
-958 952 0
-958 -957 0
959 -6 -7 0
960 -9 -959 0
961 -10 -960 0
962 11 -961 0
963 13 -962 0
964 14 -963 0
-965 958 0
-965 -964 0
966 -6 -7 0
967 8 -966 0
968 -10 -967 0
969 11 -968 0
970 -12 -969 0
971 14 -970 0
-972 965 0
-972 -971 0
973 -6 -7 0
974 8 -973 0
975 9 -974 0
976 10 -975 0
977 -12 -976 0
978 13 -977 0
979 -14 -978 0
-980 972 0
-980 -979 0
981 -6 -7 0
982 8 -981 0
983 9 -982 0
984 -10 -983 0
985 11 -984 0
986 -13 -985 0
987 14 -986 0
-988 980 0
-988 -987 0
989 -6 -7 0
990 8 -989 0
991 9 -990 0
992 -10 -991 0
993 -11 -992 0
994 12 -993 0
995 -14 -994 0
-996 988 0
-996 -995 0
997 -6 -7 0
998 -8 -997 0
999 9 -998 0
1000 12 -999 0
1001 -13 -1000 0
1002 14 -1001 0
-1003 996 0
-1003 -1002 0
1004 -6 -7 0
1005 -8 -1004 0
1006 9 -1005 0
1007 -10 -1006 0
1008 13 -1007 0
1009 -14 -1008 0
-1010 1003 0
-1010 -1009 0
1011 -6 -7 0
1012 -8 -1011 0
1013 -9 -1012 0
1014 -10 -1013 0
1015 13 -1014 0
1016 14 -1015 0
-1017 1010 0
-1017 -1016 0
-1018 1 0
-1018 1017 0
-1019 -41 -19 0
-1019 41 19 0
-1020 1 0
-1020 1019 0
-1021 -42 -20 0
-1021 42 20 0
-1022 1020 0
-1022 1021 0
-1023 -43 -21 0
-1023 43 21 0
-1024 1022 0
-1024 1023 0
-1025 -44 -22 0
-1025 44 22 0
-1026 1024 0
-1026 1025 0
-1027 -45 -23 0
-1027 45 23 0
-1028 1026 0
-1028 1027 0
-1029 -46 -24 0
-1029 46 24 0
-1030 1028 0
-1030 1029 0
-1031 -47 -25 0
-1031 47 25 0
-1032 1030 0
-1032 1031 0
-1033 -48 -26 0
-1033 48 26 0
-1034 1032 0
-1034 1033 0
-1035 61 -27 0
-1035 -61 27 0
-1036 1034 0
-1036 1035 0
1037 21 -22 0
1038 23 -1037 0
1039 24 -1038 0
1040 25 -1039 0
1041 -26 -1040 0
1042 21 -22 0
1043 23 -1042 0
1044 24 -1043 0
1045 -25 -1044 0
1046 -26 -1045 0
-1047 27 -1046 0
-1047 -27 -1041 0
1048 21 -22 0
1049 23 -1048 0
1050 -24 -1049 0
1051 -25 -1050 0
1052 -26 -1051 0
1053 -27 -1052 0
-1054 1047 0
-1054 -1053 0
1055 21 -22 0
1056 -23 -1055 0
1057 -24 -1056 0
1058 -25 -1057 0
1059 26 -1058 0
1060 -27 -1059 0
-1061 1054 0
-1061 -1060 0
1062 21 -22 0
1063 -23 -1062 0
1064 -24 -1063 0
1065 -25 -1064 0
1066 -26 -1065 0
1067 27 -1066 0
-1068 1061 0
-1068 -1067 0
1069 20 22 0
1070 23 -1069 0
1071 24 -1070 0
1072 25 -1071 0
1073 -26 -1072 0
1074 27 -1073 0
-1075 1068 0
-1075 -1074 0
1076 20 22 0
1077 23 -1076 0
1078 24 -1077 0
1079 -25 -1078 0
1080 -26 -1079 0
1081 -27 -1080 0
-1082 1075 0
-1082 -1081 0
1083 20 22 0
1084 -23 -1083 0
1085 -24 -1084 0
1086 -26 -1085 0
1087 -27 -1086 0
-1088 1082 0
-1088 -1087 0
1089 20 22 0
1090 -23 -1089 0
1091 -24 -1090 0
1092 -25 -1091 0
1093 26 -1092 0
1094 27 -1093 0
-1095 1088 0
-1095 -1094 0
1096 20 21 0
1097 22 -1096 0
1098 24 -1097 0
1099 -25 -1098 0
1100 26 -1099 0
1101 27 -1100 0
-1102 1095 0
-1102 -1101 0
1103 20 21 0
1104 22 -1103 0
1105 23 -1104 0
1106 -24 -1105 0
1107 26 -1106 0
1108 -27 -1107 0
-1109 1102 0
-1109 -1108 0
1110 20 21 0
1111 22 -1110 0
1112 23 -1111 0
1113 -24 -1112 0
1114 25 -1113 0
1115 -27 -1114 0
-1116 1109 0
-1116 -1115 0
1117 20 21 0
1118 22 -1117 0
1119 -23 -1118 0
1120 25 -1119 0
1121 -26 -1120 0
1122 -27 -1121 0
-1123 1116 0
-1123 -1122 0
1124 20 21 0
1125 22 -1124 0
1126 -23 -1125 0
1127 24 -1126 0
1128 25 -1127 0
1129 -27 -1128 0
-1130 1123 0
-1130 -1129 0
1131 20 21 0
1132 22 -1131 0
1133 -23 -1132 0
1134 24 -1133 0
1135 -25 -1134 0
1136 27 -1135 0
-1137 1130 0
-1137 -1136 0
1138 20 21 0
1139 22 -1138 0
1140 -23 -1139 0
1141 -24 -1140 0
1142 26 -1141 0
1143 27 -1142 0
-1144 1137 0
-1144 -1143 0
1145 20 21 0
1146 -22 -1145 0
1147 -24 -1146 0
1148 25 -1147 0
1149 -26 -1148 0
1150 27 -1149 0
-1151 1144 0
-1151 -1150 0
1152 20 21 0
1153 -22 -1152 0
1154 -23 -1153 0
1155 24 -1154 0
1156 -25 -1155 0
1157 -27 -1156 0
-1158 1151 0
-1158 -1157 0
1159 20 21 0
1160 -22 -1159 0
1161 -23 -1160 0
1162 -24 -1161 0
1163 26 -1162 0
1164 -27 -1163 0
-1165 1158 0
-1165 -1164 0
1166 20 21 0
1167 -22 -1166 0
1168 -23 -1167 0
1169 -24 -1168 0
1170 -26 -1169 0
1171 27 -1170 0
-1172 1165 0
-1172 -1171 0
1173 20 -21 0
1174 23 -1173 0
1175 24 -1174 0
1176 -25 -1175 0
1177 -26 -1176 0
1178 -27 -1177 0
-1179 1172 0
-1179 -1178 0
1180 20 -21 0
1181 23 -1180 0
1182 -24 -1181 0
1183 -25 -1182 0
1184 -26 -1183 0
1185 27 -1184 0
-1186 1179 0
-1186 -1185 0
1187 20 -21 0
1188 -23 -1187 0
1189 -24 -1188 0
1190 -26 -1189 0
1191 -27 -1190 0
-1192 1186 0
-1192 -1191 0
1193 20 -21 0
1194 -23 -1193 0
1195 -24 -1194 0
1196 -25 -1195 0
1197 26 -1196 0
1198 27 -1197 0
-1199 1192 0
-1199 -1198 0
1200 20 -21 0
1201 -22 -1200 0
1202 -24 -1201 0
1203 25 -1202 0
1204 -26 -1203 0
1205 -27 -1204 0
-1206 1199 0
-1206 -1205 0
1207 20 -21 0
1208 -22 -1207 0
1209 -23 -1208 0
1210 -25 -1209 0
1211 26 -1210 0
1212 27 -1211 0
-1213 1206 0
-1213 -1212 0
1214 -20 -22 0
1215 23 -1214 0
1216 -24 -1215 0
1217 -25 -1216 0
1218 -26 -1217 0
1219 -27 -1218 0
-1220 1213 0
-1220 -1219 0
1221 -20 21 0
1222 -22 -1221 0
1223 24 -1222 0
1224 25 -1223 0
1225 -26 -1224 0
1226 -27 -1225 0
-1227 1220 0
-1227 -1226 0
1228 -20 21 0
1229 -22 -1228 0
1230 23 -1229 0
1231 24 -1230 0
1232 -25 -1231 0
1233 27 -1232 0
-1234 1227 0
-1234 -1233 0
1235 -20 21 0
1236 -22 -1235 0
1237 23 -1236 0
1238 -24 -1237 0
1239 -27 -1238 0
-1240 1234 0
-1240 -1239 0
1241 -20 21 0
1242 -22 -1241 0
1243 -23 -1242 0
1244 25 -1243 0
1245 26 -1244 0
1246 27 -1245 0
-1247 1240 0
-1247 -1246 0
1248 -20 21 0
1249 -22 -1248 0
1250 -23 -1249 0
1251 -25 -1250 0
1252 -26 -1251 0
1253 27 -1252 0
-1254 1247 0
-1254 -1253 0
1255 -20 -21 0
1256 22 -1255 0
1257 -23 -1256 0
1258 24 -1257 0
1259 -25 -1258 0
1260 -27 -1259 0
-1261 1254 0
-1261 -1260 0
1262 -20 -21 0
1263 22 -1262 0
1264 -23 -1263 0
1265 -24 -1264 0
1266 -25 -1265 0
1267 26 -1266 0
1268 -27 -1267 0
-1269 1261 0
-1269 -1268 0
1270 19 21 0
1271 23 -1270 0
1272 24 -1271 0
1273 -25 -1272 0
1274 -26 -1273 0
1275 27 -1274 0
-1276 1269 0
-1276 -1275 0
1277 19 21 0
1278 -23 -1277 0
1279 -25 -1278 0
1280 26 -1279 0
1281 -27 -1280 0
-1282 1276 0
-1282 -1281 0
1283 19 21 0
1284 -23 -1283 0
1285 -24 -1284 0
1286 -26 -1285 0
1287 27 -1286 0
-1288 1282 0
-1288 -1287 0
1289 19 21 0
1290 22 -1289 0
1291 24 -1290 0
1292 -25 -1291 0
1293 26 -1292 0
1294 -27 -1293 0
-1295 1288 0
-1295 -1294 0
1296 19 21 0
1297 22 -1296 0
1298 -24 -1297 0
1299 25 -1298 0
1300 -26 -1299 0
1301 27 -1300 0
-1302 1295 0
-1302 -1301 0
1303 19 21 0
1304 22 -1303 0
1305 23 -1304 0
1306 -24 -1305 0
1307 -25 -1306 0
1308 26 -1307 0
1309 27 -1308 0
-1310 1302 0
-1310 -1309 0
1311 19 21 0
1312 22 -1311 0
1313 -23 -1312 0
1314 25 -1313 0
1315 -26 -1314 0
1316 27 -1315 0
-1317 1310 0
-1317 -1316 0
1318 19 21 0
1319 22 -1318 0
1320 -23 -1319 0
1321 24 -1320 0
1322 -25 -1321 0
1323 -27 -1322 0
-1324 1317 0
-1324 -1323 0
1325 19 21 0
1326 22 -1325 0
1327 -23 -1326 0
1328 -24 -1327 0
1329 26 -1328 0
1330 -27 -1329 0
-1331 1324 0
-1331 -1330 0
1332 19 -21 0
1333 -22 -1332 0
1334 23 -1333 0
1335 24 -1334 0
1336 -25 -1335 0
1337 -26 -1336 0
1338 -27 -1337 0
-1339 1331 0
-1339 -1338 0
1340 19 20 0
1341 22 -1340 0
1342 -24 -1341 0
1343 25 -1342 0
1344 26 -1343 0
1345 27 -1344 0
-1346 1339 0
-1346 -1345 0
1347 19 20 0
1348 22 -1347 0
1349 -24 -1348 0
1350 25 -1349 0
1351 -26 -1350 0
1352 -27 -1351 0
-1353 1346 0
-1353 -1352 0
1354 19 20 0
1355 22 -1354 0
1356 23 -1355 0
1357 -25 -1356 0
1358 26 -1357 0
1359 -27 -1358 0
-1360 1353 0
-1360 -1359 0
1361 19 20 0
1362 22 -1361 0
1363 23 -1362 0
1364 24 -1363 0
1365 -25 -1364 0
1366 -27 -1365 0
-1367 1360 0
-1367 -1366 0
1368 19 20 0
1369 22 -1368 0
1370 -23 -1369 0
1371 25 -1370 0
1372 -26 -1371 0
1373 -27 -1372 0
-1374 1367 0
-1374 -1373 0
1375 19 20 0
1376 22 -1375 0
1377 -23 -1376 0
1378 24 -1377 0
1379 25 -1378 0
1380 -27 -1379 0
-1381 1374 0
-1381 -1380 0
1382 19 20 0
1383 22 -1382 0
1384 -23 -1383 0
1385 24 -1384 0
1386 -25 -1385 0
1387 27 -1386 0
-1388 1381 0
-1388 -1387 0
1389 19 20 0
1390 22 -1389 0
1391 -23 -1390 0
1392 -24 -1391 0
1393 26 -1392 0
1394 27 -1393 0
-1395 1388 0
-1395 -1394 0
1396 19 20 0
1397 -22 -1396 0
1398 23 -1397 0
1399 24 -1398 0
1400 25 -1399 0
1401 -26 -1400 0
1402 -27 -1401 0
-1403 1395 0
-1403 -1402 0
1404 19 20 0
1405 21 -1404 0
1406 24 -1405 0
1407 -25 -1406 0
1408 26 -1407 0
1409 -27 -1408 0
-1410 1403 0
-1410 -1409 0
1411 19 20 0
1412 21 -1411 0
1413 23 -1412 0
1414 -24 -1413 0
1415 26 -1414 0
1416 27 -1415 0
-1417 1410 0
-1417 -1416 0
1418 19 20 0
1419 21 -1418 0
1420 23 -1419 0
1421 -24 -1420 0
1422 25 -1421 0
1423 27 -1422 0
-1424 1417 0
-1424 -1423 0
1425 19 20 0
1426 21 -1425 0
1427 -23 -1426 0
1428 26 -1427 0
1429 -27 -1428 0
-1430 1424 0
-1430 -1429 0
1431 19 20 0
1432 21 -1431 0
1433 -23 -1432 0
1434 25 -1433 0
1435 -26 -1434 0
1436 27 -1435 0
-1437 1430 0
-1437 -1436 0
1438 19 20 0
1439 21 -1438 0
1440 22 -1439 0
1441 -26 -1440 0
-1442 1437 0
-1442 -1441 0
1443 19 20 0
1444 21 -1443 0
1445 22 -1444 0
1446 -25 -1445 0
-1447 1442 0
-1447 -1446 0
1448 19 20 0
1449 21 -1448 0
1450 22 -1449 0
1451 -24 -1450 0
-1452 1447 0
-1452 -1451 0
1453 19 20 0
1454 21 -1453 0
1455 22 -1454 0
1456 -23 -1455 0
-1457 1452 0
-1457 -1456 0
1458 19 20 0
1459 -21 -1458 0
1460 -23 -1459 0
1461 25 -1460 0
1462 -26 -1461 0
1463 -27 -1462 0
-1464 1457 0
-1464 -1463 0
1465 19 20 0
1466 -21 -1465 0
1467 -23 -1466 0
1468 24 -1467 0
1469 -25 -1468 0
1470 27 -1469 0
-1471 1464 0
-1471 -1470 0
1472 19 20 0
1473 -21 -1472 0
1474 -23 -1473 0
1475 -24 -1474 0
1476 26 -1475 0
1477 27 -1476 0
-1478 1471 0
-1478 -1477 0
1479 19 20 0
1480 -21 -1479 0
1481 -22 -1480 0
1482 25 -1481 0
1483 -26 -1482 0
1484 -27 -1483 0
-1485 1478 0
-1485 -1484 0
1486 19 20 0
1487 -21 -1486 0
1488 -22 -1487 0
1489 24 -1488 0
1490 -25 -1489 0
1491 26 -1490 0
1492 27 -1491 0
-1493 1485 0
-1493 -1492 0
1494 19 20 0
1495 -21 -1494 0
1496 -22 -1495 0
1497 23 -1496 0
1498 24 -1497 0
1499 -26 -1498 0
1500 -27 -1499 0
-1501 1493 0
-1501 -1500 0
1502 19 20 0
1503 -21 -1502 0
1504 -22 -1503 0
1505 23 -1504 0
1506 -24 -1505 0
1507 26 -1506 0
1508 -27 -1507 0
-1509 1501 0
-1509 -1508 0
1510 19 20 0
1511 -21 -1510 0
1512 -22 -1511 0
1513 -23 -1512 0
1514 26 -1513 0
1515 27 -1514 0
-1516 1509 0
-1516 -1515 0
1517 19 -20 0
1518 23 -1517 0
1519 -24 -1518 0
1520 -25 -1519 0
1521 -26 -1520 0
1522 -27 -1521 0
-1523 1516 0
-1523 -1522 0
1524 19 -20 0
1525 -23 -1524 0
1526 -24 -1525 0
1527 -26 -1526 0
1528 27 -1527 0
-1529 1523 0
-1529 -1528 0
1530 19 -20 0
1531 -23 -1530 0
1532 -24 -1531 0
1533 -25 -1532 0
1534 26 -1533 0
1535 -27 -1534 0
-1536 1529 0
-1536 -1535 0
1537 19 -20 0
1538 22 -1537 0
1539 -24 -1538 0
1540 25 -1539 0
1541 -26 -1540 0
1542 27 -1541 0
-1543 1536 0
-1543 -1542 0
1544 19 -20 0
1545 22 -1544 0
1546 23 -1545 0
1547 24 -1546 0
1548 25 -1547 0
1549 -26 -1548 0
1550 -27 -1549 0
-1551 1543 0
-1551 -1550 0
1552 19 -20 0
1553 22 -1552 0
1554 23 -1553 0
1555 24 -1554 0
1556 -25 -1555 0
1557 -26 -1556 0
1558 27 -1557 0
-1559 1551 0
-1559 -1558 0
1560 19 -20 0
1561 22 -1560 0
1562 23 -1561 0
1563 -24 -1562 0
1564 25 -1563 0
1565 26 -1564 0
1566 -27 -1565 0
-1567 1559 0
-1567 -1566 0
1568 19 -20 0
1569 22 -1568 0
1570 -23 -1569 0
1571 -25 -1570 0
1572 26 -1571 0
1573 -27 -1572 0
-1574 1567 0
-1574 -1573 0
1575 19 -20 0
1576 22 -1575 0
1577 -23 -1576 0
1578 24 -1577 0
1579 25 -1578 0
1580 26 -1579 0
1581 27 -1580 0
-1582 1574 0
-1582 -1581 0
1583 19 -20 0
1584 22 -1583 0
1585 -23 -1584 0
1586 24 -1585 0
1587 -25 -1586 0
1588 -27 -1587 0
-1589 1582 0
-1589 -1588 0
1590 19 -20 0
1591 21 -1590 0
1592 -22 -1591 0
1593 -23 -1592 0
1594 -24 -1593 0
1595 25 -1594 0
1596 27 -1595 0
-1597 1589 0
-1597 -1596 0
1598 19 -20 0
1599 -21 -1598 0
1600 -23 -1599 0
1601 24 -1600 0
1602 -25 -1601 0
1603 -27 -1602 0
-1604 1597 0
-1604 -1603 0
1605 19 -20 0
1606 -21 -1605 0
1607 22 -1606 0
1608 23 -1607 0
1609 24 -1608 0
1610 -25 -1609 0
1611 27 -1610 0
-1612 1604 0
-1612 -1611 0
1613 19 -20 0
1614 -21 -1613 0
1615 22 -1614 0
1616 23 -1615 0
1617 -24 -1616 0
1618 26 -1617 0
1619 -27 -1618 0
-1620 1612 0
-1620 -1619 0
1621 19 -20 0
1622 -21 -1621 0
1623 22 -1622 0
1624 -23 -1623 0
1625 24 -1624 0
1626 -26 -1625 0
1627 -27 -1626 0
-1628 1620 0
-1628 -1627 0
1629 19 -20 0
1630 -21 -1629 0
1631 22 -1630 0
1632 -23 -1631 0
1633 -24 -1632 0
1634 25 -1633 0
1635 27 -1634 0
-1636 1628 0
-1636 -1635 0
1637 19 -20 0
1638 -21 -1637 0
1639 -22 -1638 0
1640 25 -1639 0
1641 -26 -1640 0
1642 27 -1641 0
-1643 1636 0
-1643 -1642 0
1644 19 -20 0
1645 -21 -1644 0
1646 -22 -1645 0
1647 24 -1646 0
1648 -25 -1647 0
1649 -27 -1648 0
-1650 1643 0
-1650 -1649 0
1651 19 -20 0
1652 -21 -1651 0
1653 -22 -1652 0
1654 23 -1653 0
1655 -24 -1654 0
1656 26 -1655 0
1657 27 -1656 0
-1658 1650 0
-1658 -1657 0
1659 19 -20 0
1660 -21 -1659 0
1661 -22 -1660 0
1662 -23 -1661 0
1663 26 -1662 0
1664 -27 -1663 0
-1665 1658 0
-1665 -1664 0
1666 -19 22 0
1667 23 -1666 0
1668 24 -1667 0
1669 25 -1668 0
1670 -26 -1669 0
1671 27 -1670 0
-1672 1665 0
-1672 -1671 0
1673 -19 22 0
1674 23 -1673 0
1675 24 -1674 0
1676 -25 -1675 0
1677 -26 -1676 0
1678 -27 -1677 0
-1679 1672 0
-1679 -1678 0
1680 -19 22 0
1681 23 -1680 0
1682 -24 -1681 0
1683 -25 -1682 0
1684 -26 -1683 0
1685 27 -1684 0
-1686 1679 0
-1686 -1685 0
1687 -19 22 0
1688 -23 -1687 0
1689 24 -1688 0
1690 25 -1689 0
1691 26 -1690 0
1692 -27 -1691 0
-1693 1686 0
-1693 -1692 0
1694 -19 22 0
1695 -23 -1694 0
1696 -24 -1695 0
1697 -25 -1696 0
1698 -26 -1697 0
1699 -27 -1698 0
-1700 1693 0
-1700 -1699 0
1701 -19 21 0
1702 22 -1701 0
1703 -24 -1702 0
1704 25 -1703 0
1705 -26 -1704 0
1706 -27 -1705 0
-1707 1700 0
-1707 -1706 0
1708 -19 21 0
1709 22 -1708 0
1710 -23 -1709 0
1711 24 -1710 0
1712 -25 -1711 0
1713 27 -1712 0
-1714 1707 0
-1714 -1713 0
1715 -19 21 0
1716 22 -1715 0
1717 -23 -1716 0
1718 -24 -1717 0
1719 -26 -1718 0
1720 -27 -1719 0
-1721 1714 0
-1721 -1720 0
1722 -19 21 0
1723 22 -1722 0
1724 -23 -1723 0
1725 -24 -1724 0
1726 -25 -1725 0
1727 26 -1726 0
1728 27 -1727 0
-1729 1721 0
-1729 -1728 0
1730 -19 21 0
1731 -22 -1730 0
1732 24 -1731 0
1733 25 -1732 0
1734 -26 -1733 0
1735 -27 -1734 0
-1736 1729 0
-1736 -1735 0
1737 -19 21 0
1738 -22 -1737 0
1739 23 -1738 0
1740 24 -1739 0
1741 -25 -1740 0
1742 27 -1741 0
-1743 1736 0
-1743 -1742 0
1744 -19 21 0
1745 -22 -1744 0
1746 23 -1745 0
1747 -24 -1746 0
1748 25 -1747 0
1749 26 -1748 0
1750 -27 -1749 0
-1751 1743 0
-1751 -1750 0
1752 -19 21 0
1753 -22 -1752 0
1754 -23 -1753 0
1755 24 -1754 0
1756 25 -1755 0
1757 26 -1756 0
1758 27 -1757 0
-1759 1751 0
-1759 -1758 0
1760 -19 -21 0
1761 22 -1760 0
1762 24 -1761 0
1763 25 -1762 0
1764 -26 -1763 0
1765 27 -1764 0
-1766 1759 0
-1766 -1765 0
1767 -19 -21 0
1768 22 -1767 0
1769 24 -1768 0
1770 -25 -1769 0
1771 -27 -1770 0
-1772 1766 0
-1772 -1771 0
1773 -19 -21 0
1774 22 -1773 0
1775 23 -1774 0
1776 -24 -1775 0
1777 27 -1776 0
-1778 1772 0
-1778 -1777 0
1779 -19 -21 0
1780 22 -1779 0
1781 -23 -1780 0
1782 25 -1781 0
1783 26 -1782 0
1784 -27 -1783 0
-1785 1778 0
-1785 -1784 0
1786 -19 -21 0
1787 22 -1786 0
1788 -23 -1787 0
1789 -25 -1788 0
1790 -26 -1789 0
1791 -27 -1790 0
-1792 1785 0
-1792 -1791 0
1793 -19 -21 0
1794 22 -1793 0
1795 -23 -1794 0
1796 24 -1795 0
1797 26 -1796 0
1798 -27 -1797 0
-1799 1792 0
-1799 -1798 0
1800 -19 -21 0
1801 -22 -1800 0
1802 -24 -1801 0
1803 25 -1802 0
1804 -26 -1803 0
1805 -27 -1804 0
-1806 1799 0
-1806 -1805 0
1807 -19 -21 0
1808 -22 -1807 0
1809 -23 -1808 0
1810 -25 -1809 0
1811 26 -1810 0
1812 27 -1811 0
-1813 1806 0
-1813 -1812 0
1814 -19 -21 0
1815 -22 -1814 0
1816 -23 -1815 0
1817 -24 -1816 0
1818 -26 -1817 0
1819 -27 -1818 0
-1820 1813 0
-1820 -1819 0
1821 -19 20 0
1822 -22 -1821 0
1823 -23 -1822 0
1824 24 -1823 0
1825 -25 -1824 0
1826 -26 -1825 0
1827 -27 -1826 0
-1828 1820 0
-1828 -1827 0
1829 -19 20 0
1830 21 -1829 0
1831 -22 -1830 0
1832 23 -1831 0
1833 -25 -1832 0
1834 26 -1833 0
1835 27 -1834 0
-1836 1828 0
-1836 -1835 0
1837 -19 20 0
1838 21 -1837 0
1839 -22 -1838 0
1840 -23 -1839 0
1841 24 -1840 0
1842 -26 -1841 0
1843 -27 -1842 0
-1844 1836 0
-1844 -1843 0
1845 -19 20 0
1846 -21 -1845 0
1847 24 -1846 0
1848 25 -1847 0
1849 -26 -1848 0
1850 27 -1849 0
-1851 1844 0
-1851 -1850 0
1852 -19 20 0
1853 -21 -1852 0
1854 24 -1853 0
1855 -25 -1854 0
1856 -26 -1855 0
1857 -27 -1856 0
-1858 1851 0
-1858 -1857 0
1859 -19 20 0
1860 -21 -1859 0
1861 -24 -1860 0
1862 -25 -1861 0
1863 26 -1862 0
1864 27 -1863 0
-1865 1858 0
-1865 -1864 0
1866 -19 20 0
1867 -21 -1866 0
1868 23 -1867 0
1869 24 -1868 0
1870 -25 -1869 0
1871 -27 -1870 0
-1872 1865 0
-1872 -1871 0
1873 -19 20 0
1874 -21 -1873 0
1875 23 -1874 0
1876 -24 -1875 0
1877 26 -1876 0
1878 27 -1877 0
-1879 1872 0
-1879 -1878 0
1880 -19 20 0
1881 -21 -1880 0
1882 -23 -1881 0
1883 25 -1882 0
1884 26 -1883 0
1885 -27 -1884 0
-1886 1879 0
-1886 -1885 0
1887 -19 20 0
1888 -21 -1887 0
1889 -23 -1888 0
1890 -24 -1889 0
1891 25 -1890 0
1892 -27 -1891 0
-1893 1886 0
-1893 -1892 0
1894 -19 -20 0
1895 22 -1894 0
1896 24 -1895 0
1897 25 -1896 0
1898 -26 -1897 0
1899 27 -1898 0
-1900 1893 0
-1900 -1899 0
1901 -19 -20 0
1902 22 -1901 0
1903 23 -1902 0
1904 24 -1903 0
1905 -25 -1904 0
1906 -27 -1905 0
-1907 1900 0
-1907 -1906 0
1908 -19 -20 0
1909 22 -1908 0
1910 23 -1909 0
1911 -24 -1910 0
1912 25 -1911 0
1913 26 -1912 0
1914 27 -1913 0
-1915 1907 0
-1915 -1914 0
1916 -19 -20 0
1917 -22 -1916 0
1918 25 -1917 0
1919 -26 -1918 0
1920 -27 -1919 0
-1921 1915 0
-1921 -1920 0
1922 -19 -20 0
1923 -22 -1922 0
1924 24 -1923 0
1925 -25 -1924 0
1926 27 -1925 0
-1927 1921 0
-1927 -1926 0
1928 -19 -20 0
1929 -22 -1928 0
1930 23 -1929 0
1931 -24 -1930 0
1932 -27 -1931 0
-1933 1927 0
-1933 -1932 0
1934 -19 -20 0
1935 -22 -1934 0
1936 -23 -1935 0
1937 24 -1936 0
1938 26 -1937 0
1939 27 -1938 0
-1940 1933 0
-1940 -1939 0
1941 -19 -20 0
1942 21 -1941 0
1943 -23 -1942 0
1944 24 -1943 0
1945 -25 -1944 0
1946 27 -1945 0
-1947 1940 0
-1947 -1946 0
1948 -19 -20 0
1949 21 -1948 0
1950 22 -1949 0
1951 23 -1950 0
1952 -25 -1951 0
1953 26 -1952 0
1954 -27 -1953 0
-1955 1947 0
-1955 -1954 0
1956 -19 -20 0
1957 21 -1956 0
1958 22 -1957 0
1959 -23 -1958 0
1960 24 -1959 0
1961 -26 -1960 0
1962 27 -1961 0
-1963 1955 0
-1963 -1962 0
1964 -19 -20 0
1965 21 -1964 0
1966 22 -1965 0
1967 -23 -1966 0
1968 -24 -1967 0
1969 25 -1968 0
1970 -27 -1969 0
-1971 1963 0
-1971 -1970 0
1972 -19 -20 0
1973 -21 -1972 0
1974 22 -1973 0
1975 25 -1974 0
1976 -26 -1975 0
1977 27 -1976 0
-1978 1971 0
-1978 -1977 0
1979 -19 -20 0
1980 -21 -1979 0
1981 22 -1980 0
1982 -23 -1981 0
1983 26 -1982 0
1984 -27 -1983 0
-1985 1978 0
-1985 -1984 0
1986 -19 -20 0
1987 -21 -1986 0
1988 -22 -1987 0
1989 -23 -1988 0
1990 26 -1989 0
1991 27 -1990 0
-1992 1985 0
-1992 -1991 0
-1993 1 0
-1993 1992 0
1994 30 -31 0
1995 32 -1994 0
1996 33 -1995 0
1997 34 -1996 0
1998 -35 -1997 0
1999 30 -31 0
2000 32 -1999 0
2001 33 -2000 0
2002 -34 -2001 0
2003 -35 -2002 0
-2004 36 -2003 0
-2004 -36 -1998 0
2005 30 -31 0
2006 32 -2005 0
2007 -33 -2006 0
2008 -34 -2007 0
2009 -35 -2008 0
2010 -36 -2009 0
-2011 2004 0
-2011 -2010 0
2012 30 -31 0
2013 -32 -2012 0
2014 -33 -2013 0
2015 -34 -2014 0
2016 35 -2015 0
2017 -36 -2016 0
-2018 2011 0
-2018 -2017 0
2019 30 -31 0
2020 -32 -2019 0
2021 -33 -2020 0
2022 -34 -2021 0
2023 -35 -2022 0
2024 36 -2023 0
-2025 2018 0
-2025 -2024 0
2026 29 31 0
2027 32 -2026 0
2028 33 -2027 0
2029 34 -2028 0
2030 -35 -2029 0
2031 36 -2030 0
-2032 2025 0
-2032 -2031 0
2033 29 31 0
2034 32 -2033 0
2035 33 -2034 0
2036 -34 -2035 0
2037 -35 -2036 0
2038 -36 -2037 0
-2039 2032 0
-2039 -2038 0
2040 29 31 0
2041 -32 -2040 0
2042 -33 -2041 0
2043 -35 -2042 0
2044 -36 -2043 0
-2045 2039 0
-2045 -2044 0
2046 29 31 0
2047 -32 -2046 0
2048 -33 -2047 0
2049 -34 -2048 0
2050 35 -2049 0
2051 36 -2050 0
-2052 2045 0
-2052 -2051 0
2053 29 30 0
2054 31 -2053 0
2055 33 -2054 0
2056 -34 -2055 0
2057 35 -2056 0
2058 36 -2057 0
-2059 2052 0
-2059 -2058 0
2060 29 30 0
2061 31 -2060 0
2062 32 -2061 0
2063 -33 -2062 0
2064 35 -2063 0
2065 -36 -2064 0
-2066 2059 0
-2066 -2065 0
2067 29 30 0
2068 31 -2067 0
2069 32 -2068 0
2070 -33 -2069 0
2071 34 -2070 0
2072 -36 -2071 0
-2073 2066 0
-2073 -2072 0
2074 29 30 0
2075 31 -2074 0
2076 -32 -2075 0
2077 34 -2076 0
2078 -35 -2077 0
2079 -36 -2078 0
-2080 2073 0
-2080 -2079 0
2081 29 30 0
2082 31 -2081 0
2083 -32 -2082 0
2084 33 -2083 0
2085 34 -2084 0
2086 -36 -2085 0
-2087 2080 0
-2087 -2086 0
2088 29 30 0
2089 31 -2088 0
2090 -32 -2089 0
2091 33 -2090 0
2092 -34 -2091 0
2093 36 -2092 0
-2094 2087 0
-2094 -2093 0
2095 29 30 0
2096 31 -2095 0
2097 -32 -2096 0
2098 -33 -2097 0
2099 35 -2098 0
2100 36 -2099 0
-2101 2094 0
-2101 -2100 0
2102 29 30 0
2103 -31 -2102 0
2104 -33 -2103 0
2105 34 -2104 0
2106 -35 -2105 0
2107 36 -2106 0
-2108 2101 0
-2108 -2107 0
2109 29 30 0
2110 -31 -2109 0
2111 -32 -2110 0
2112 33 -2111 0
2113 -34 -2112 0
2114 -36 -2113 0
-2115 2108 0
-2115 -2114 0
2116 29 30 0
2117 -31 -2116 0
2118 -32 -2117 0
2119 -33 -2118 0
2120 35 -2119 0
2121 -36 -2120 0
-2122 2115 0
-2122 -2121 0
2123 29 30 0
2124 -31 -2123 0
2125 -32 -2124 0
2126 -33 -2125 0
2127 -35 -2126 0
2128 36 -2127 0
-2129 2122 0
-2129 -2128 0
2130 29 -30 0
2131 32 -2130 0
2132 33 -2131 0
2133 -34 -2132 0
2134 -35 -2133 0
2135 -36 -2134 0
-2136 2129 0
-2136 -2135 0
2137 29 -30 0
2138 32 -2137 0
2139 -33 -2138 0
2140 -34 -2139 0
2141 -35 -2140 0
2142 36 -2141 0
-2143 2136 0
-2143 -2142 0
2144 29 -30 0
2145 -32 -2144 0
2146 -33 -2145 0
2147 -35 -2146 0
2148 -36 -2147 0
-2149 2143 0
-2149 -2148 0
2150 29 -30 0
2151 -32 -2150 0
2152 -33 -2151 0
2153 -34 -2152 0
2154 35 -2153 0
2155 36 -2154 0
-2156 2149 0
-2156 -2155 0
2157 29 -30 0
2158 -31 -2157 0
2159 -33 -2158 0
2160 34 -2159 0
2161 -35 -2160 0
2162 -36 -2161 0
-2163 2156 0
-2163 -2162 0
2164 29 -30 0
2165 -31 -2164 0
2166 -32 -2165 0
2167 -34 -2166 0
2168 35 -2167 0
2169 36 -2168 0
-2170 2163 0
-2170 -2169 0
2171 -29 -31 0
2172 32 -2171 0
2173 -33 -2172 0
2174 -34 -2173 0
2175 -35 -2174 0
2176 -36 -2175 0
-2177 2170 0
-2177 -2176 0
2178 -29 30 0
2179 -31 -2178 0
2180 33 -2179 0
2181 34 -2180 0
2182 -35 -2181 0
2183 -36 -2182 0
-2184 2177 0
-2184 -2183 0
2185 -29 30 0
2186 -31 -2185 0
2187 32 -2186 0
2188 33 -2187 0
2189 -34 -2188 0
2190 36 -2189 0
-2191 2184 0
-2191 -2190 0
2192 -29 30 0
2193 -31 -2192 0
2194 32 -2193 0
2195 -33 -2194 0
2196 -36 -2195 0
-2197 2191 0
-2197 -2196 0
2198 -29 30 0
2199 -31 -2198 0
2200 -32 -2199 0
2201 34 -2200 0
2202 35 -2201 0
2203 36 -2202 0
-2204 2197 0
-2204 -2203 0
2205 -29 30 0
2206 -31 -2205 0
2207 -32 -2206 0
2208 -34 -2207 0
2209 -35 -2208 0
2210 36 -2209 0
-2211 2204 0
-2211 -2210 0
2212 -29 -30 0
2213 31 -2212 0
2214 -32 -2213 0
2215 33 -2214 0
2216 -34 -2215 0
2217 -36 -2216 0
-2218 2211 0
-2218 -2217 0
2219 -29 -30 0
2220 31 -2219 0
2221 -32 -2220 0
2222 -33 -2221 0
2223 -34 -2222 0
2224 35 -2223 0
2225 -36 -2224 0
-2226 2218 0
-2226 -2225 0
2227 28 30 0
2228 32 -2227 0
2229 33 -2228 0
2230 -34 -2229 0
2231 -35 -2230 0
2232 36 -2231 0
-2233 2226 0
-2233 -2232 0
2234 28 30 0
2235 -32 -2234 0
2236 -34 -2235 0
2237 35 -2236 0
2238 -36 -2237 0
-2239 2233 0
-2239 -2238 0
2240 28 30 0
2241 -32 -2240 0
2242 -33 -2241 0
2243 -35 -2242 0
2244 36 -2243 0
-2245 2239 0
-2245 -2244 0
2246 28 30 0
2247 31 -2246 0
2248 33 -2247 0
2249 -34 -2248 0
2250 35 -2249 0
2251 -36 -2250 0
-2252 2245 0
-2252 -2251 0
2253 28 30 0
2254 31 -2253 0
2255 -33 -2254 0
2256 34 -2255 0
2257 -35 -2256 0
2258 36 -2257 0
-2259 2252 0
-2259 -2258 0
2260 28 30 0
2261 31 -2260 0
2262 32 -2261 0
2263 -33 -2262 0
2264 -34 -2263 0
2265 35 -2264 0
2266 36 -2265 0
-2267 2259 0
-2267 -2266 0
2268 28 30 0
2269 31 -2268 0
2270 -32 -2269 0
2271 34 -2270 0
2272 -35 -2271 0
2273 36 -2272 0
-2274 2267 0
-2274 -2273 0
2275 28 30 0
2276 31 -2275 0
2277 -32 -2276 0
2278 33 -2277 0
2279 -34 -2278 0
2280 -36 -2279 0
-2281 2274 0
-2281 -2280 0
2282 28 30 0
2283 31 -2282 0
2284 -32 -2283 0
2285 -33 -2284 0
2286 35 -2285 0
2287 -36 -2286 0
-2288 2281 0
-2288 -2287 0
2289 28 -30 0
2290 -31 -2289 0
2291 32 -2290 0
2292 33 -2291 0
2293 -34 -2292 0
2294 -35 -2293 0
2295 -36 -2294 0
-2296 2288 0
-2296 -2295 0
2297 28 29 0
2298 31 -2297 0
2299 -33 -2298 0
2300 34 -2299 0
2301 35 -2300 0
2302 36 -2301 0
-2303 2296 0
-2303 -2302 0
2304 28 29 0
2305 31 -2304 0
2306 -33 -2305 0
2307 34 -2306 0
2308 -35 -2307 0
2309 -36 -2308 0
-2310 2303 0
-2310 -2309 0
2311 28 29 0
2312 31 -2311 0
2313 32 -2312 0
2314 -34 -2313 0
2315 35 -2314 0
2316 -36 -2315 0
-2317 2310 0
-2317 -2316 0
2318 28 29 0
2319 31 -2318 0
2320 32 -2319 0
2321 33 -2320 0
2322 -34 -2321 0
2323 -36 -2322 0
-2324 2317 0
-2324 -2323 0
2325 28 29 0
2326 31 -2325 0
2327 -32 -2326 0
2328 34 -2327 0
2329 -35 -2328 0
2330 -36 -2329 0
-2331 2324 0
-2331 -2330 0
2332 28 29 0
2333 31 -2332 0
2334 -32 -2333 0
2335 33 -2334 0
2336 34 -2335 0
2337 -36 -2336 0
-2338 2331 0
-2338 -2337 0
2339 28 29 0
2340 31 -2339 0
2341 -32 -2340 0
2342 33 -2341 0
2343 -34 -2342 0
2344 36 -2343 0
-2345 2338 0
-2345 -2344 0
2346 28 29 0
2347 31 -2346 0
2348 -32 -2347 0
2349 -33 -2348 0
2350 35 -2349 0
2351 36 -2350 0
-2352 2345 0
-2352 -2351 0
2353 28 29 0
2354 -31 -2353 0
2355 32 -2354 0
2356 33 -2355 0
2357 34 -2356 0
2358 -35 -2357 0
2359 -36 -2358 0
-2360 2352 0
-2360 -2359 0
2361 28 29 0
2362 30 -2361 0
2363 33 -2362 0
2364 -34 -2363 0
2365 35 -2364 0
2366 -36 -2365 0
-2367 2360 0
-2367 -2366 0
2368 28 29 0
2369 30 -2368 0
2370 32 -2369 0
2371 -33 -2370 0
2372 35 -2371 0
2373 36 -2372 0
-2374 2367 0
-2374 -2373 0
2375 28 29 0
2376 30 -2375 0
2377 32 -2376 0
2378 -33 -2377 0
2379 34 -2378 0
2380 36 -2379 0
-2381 2374 0
-2381 -2380 0
2382 28 29 0
2383 30 -2382 0
2384 -32 -2383 0
2385 35 -2384 0
2386 -36 -2385 0
-2387 2381 0
-2387 -2386 0
2388 28 29 0
2389 30 -2388 0
2390 -32 -2389 0
2391 34 -2390 0
2392 -35 -2391 0
2393 36 -2392 0
-2394 2387 0
-2394 -2393 0
2395 28 29 0
2396 30 -2395 0
2397 31 -2396 0
2398 -35 -2397 0
-2399 2394 0
-2399 -2398 0
2400 28 29 0
2401 30 -2400 0
2402 31 -2401 0
2403 -34 -2402 0
-2404 2399 0
-2404 -2403 0
2405 28 29 0
2406 30 -2405 0
2407 31 -2406 0
2408 -33 -2407 0
-2409 2404 0
-2409 -2408 0
2410 28 29 0
2411 30 -2410 0
2412 31 -2411 0
2413 -32 -2412 0
-2414 2409 0
-2414 -2413 0
2415 28 29 0
2416 -30 -2415 0
2417 -32 -2416 0
2418 34 -2417 0
2419 -35 -2418 0
2420 -36 -2419 0
-2421 2414 0
-2421 -2420 0
2422 28 29 0
2423 -30 -2422 0
2424 -32 -2423 0
2425 33 -2424 0
2426 -34 -2425 0
2427 36 -2426 0
-2428 2421 0
-2428 -2427 0
2429 28 29 0
2430 -30 -2429 0
2431 -32 -2430 0
2432 -33 -2431 0
2433 35 -2432 0
2434 36 -2433 0
-2435 2428 0
-2435 -2434 0
2436 28 29 0
2437 -30 -2436 0
2438 -31 -2437 0
2439 34 -2438 0
2440 -35 -2439 0
2441 -36 -2440 0
-2442 2435 0
-2442 -2441 0
2443 28 29 0
2444 -30 -2443 0
2445 -31 -2444 0
2446 33 -2445 0
2447 -34 -2446 0
2448 35 -2447 0
2449 36 -2448 0
-2450 2442 0
-2450 -2449 0
2451 28 29 0
2452 -30 -2451 0
2453 -31 -2452 0
2454 32 -2453 0
2455 33 -2454 0
2456 -35 -2455 0
2457 -36 -2456 0
-2458 2450 0
-2458 -2457 0
2459 28 29 0
2460 -30 -2459 0
2461 -31 -2460 0
2462 32 -2461 0
2463 -33 -2462 0
2464 35 -2463 0
2465 -36 -2464 0
-2466 2458 0
-2466 -2465 0
2467 28 29 0
2468 -30 -2467 0
2469 -31 -2468 0
2470 -32 -2469 0
2471 35 -2470 0
2472 36 -2471 0
-2473 2466 0
-2473 -2472 0
2474 28 -29 0
2475 32 -2474 0
2476 -33 -2475 0
2477 -34 -2476 0
2478 -35 -2477 0
2479 -36 -2478 0
-2480 2473 0
-2480 -2479 0
2481 28 -29 0
2482 -32 -2481 0
2483 -33 -2482 0
2484 -35 -2483 0
2485 36 -2484 0
-2486 2480 0
-2486 -2485 0
2487 28 -29 0
2488 -32 -2487 0
2489 -33 -2488 0
2490 -34 -2489 0
2491 35 -2490 0
2492 -36 -2491 0
-2493 2486 0
-2493 -2492 0
2494 28 -29 0
2495 31 -2494 0
2496 -33 -2495 0
2497 34 -2496 0
2498 -35 -2497 0
2499 36 -2498 0
-2500 2493 0
-2500 -2499 0
2501 28 -29 0
2502 31 -2501 0
2503 32 -2502 0
2504 33 -2503 0
2505 34 -2504 0
2506 -35 -2505 0
2507 -36 -2506 0
-2508 2500 0
-2508 -2507 0
2509 28 -29 0
2510 31 -2509 0
2511 32 -2510 0
2512 33 -2511 0
2513 -34 -2512 0
2514 -35 -2513 0
2515 36 -2514 0
-2516 2508 0
-2516 -2515 0
2517 28 -29 0
2518 31 -2517 0
2519 32 -2518 0
2520 -33 -2519 0
2521 34 -2520 0
2522 35 -2521 0
2523 -36 -2522 0
-2524 2516 0
-2524 -2523 0
2525 28 -29 0
2526 31 -2525 0
2527 -32 -2526 0
2528 -34 -2527 0
2529 35 -2528 0
2530 -36 -2529 0
-2531 2524 0
-2531 -2530 0
2532 28 -29 0
2533 31 -2532 0
2534 -32 -2533 0
2535 33 -2534 0
2536 34 -2535 0
2537 35 -2536 0
2538 36 -2537 0
-2539 2531 0
-2539 -2538 0
2540 28 -29 0
2541 31 -2540 0
2542 -32 -2541 0
2543 33 -2542 0
2544 -34 -2543 0
2545 -36 -2544 0
-2546 2539 0
-2546 -2545 0
2547 28 -29 0
2548 30 -2547 0
2549 -31 -2548 0
2550 -32 -2549 0
2551 -33 -2550 0
2552 34 -2551 0
2553 36 -2552 0
-2554 2546 0
-2554 -2553 0
2555 28 -29 0
2556 -30 -2555 0
2557 -32 -2556 0
2558 33 -2557 0
2559 -34 -2558 0
2560 -36 -2559 0
-2561 2554 0
-2561 -2560 0
2562 28 -29 0
2563 -30 -2562 0
2564 31 -2563 0
2565 32 -2564 0
2566 33 -2565 0
2567 -34 -2566 0
2568 36 -2567 0
-2569 2561 0
-2569 -2568 0
2570 28 -29 0
2571 -30 -2570 0
2572 31 -2571 0
2573 32 -2572 0
2574 -33 -2573 0
2575 35 -2574 0
2576 -36 -2575 0
-2577 2569 0
-2577 -2576 0
2578 28 -29 0
2579 -30 -2578 0
2580 31 -2579 0
2581 -32 -2580 0
2582 33 -2581 0
2583 -35 -2582 0
2584 -36 -2583 0
-2585 2577 0
-2585 -2584 0
2586 28 -29 0
2587 -30 -2586 0
2588 31 -2587 0
2589 -32 -2588 0
2590 -33 -2589 0
2591 34 -2590 0
2592 36 -2591 0
-2593 2585 0
-2593 -2592 0
2594 28 -29 0
2595 -30 -2594 0
2596 -31 -2595 0
2597 34 -2596 0
2598 -35 -2597 0
2599 36 -2598 0
-2600 2593 0
-2600 -2599 0
2601 28 -29 0
2602 -30 -2601 0
2603 -31 -2602 0
2604 33 -2603 0
2605 -34 -2604 0
2606 -36 -2605 0
-2607 2600 0
-2607 -2606 0
2608 28 -29 0
2609 -30 -2608 0
2610 -31 -2609 0
2611 32 -2610 0
2612 -33 -2611 0
2613 35 -2612 0
2614 36 -2613 0
-2615 2607 0
-2615 -2614 0
2616 28 -29 0
2617 -30 -2616 0
2618 -31 -2617 0
2619 -32 -2618 0
2620 35 -2619 0
2621 -36 -2620 0
-2622 2615 0
-2622 -2621 0
2623 -28 31 0
2624 32 -2623 0
2625 33 -2624 0
2626 34 -2625 0
2627 -35 -2626 0
2628 36 -2627 0
-2629 2622 0
-2629 -2628 0
2630 -28 31 0
2631 32 -2630 0
2632 33 -2631 0
2633 -34 -2632 0
2634 -35 -2633 0
2635 -36 -2634 0
-2636 2629 0
-2636 -2635 0
2637 -28 31 0
2638 32 -2637 0
2639 -33 -2638 0
2640 -34 -2639 0
2641 -35 -2640 0
2642 36 -2641 0
-2643 2636 0
-2643 -2642 0
2644 -28 31 0
2645 -32 -2644 0
2646 33 -2645 0
2647 34 -2646 0
2648 35 -2647 0
2649 -36 -2648 0
-2650 2643 0
-2650 -2649 0
2651 -28 31 0
2652 -32 -2651 0
2653 -33 -2652 0
2654 -34 -2653 0
2655 -35 -2654 0
2656 -36 -2655 0
-2657 2650 0
-2657 -2656 0
2658 -28 30 0
2659 31 -2658 0
2660 -33 -2659 0
2661 34 -2660 0
2662 -35 -2661 0
2663 -36 -2662 0
-2664 2657 0
-2664 -2663 0
2665 -28 30 0
2666 31 -2665 0
2667 -32 -2666 0
2668 33 -2667 0
2669 -34 -2668 0
2670 36 -2669 0
-2671 2664 0
-2671 -2670 0
2672 -28 30 0
2673 31 -2672 0
2674 -32 -2673 0
2675 -33 -2674 0
2676 -35 -2675 0
2677 -36 -2676 0
-2678 2671 0
-2678 -2677 0
2679 -28 30 0
2680 31 -2679 0
2681 -32 -2680 0
2682 -33 -2681 0
2683 -34 -2682 0
2684 35 -2683 0
2685 36 -2684 0
-2686 2678 0
-2686 -2685 0
2687 -28 30 0
2688 -31 -2687 0
2689 33 -2688 0
2690 34 -2689 0
2691 -35 -2690 0
2692 -36 -2691 0
-2693 2686 0
-2693 -2692 0
2694 -28 30 0
2695 -31 -2694 0
2696 32 -2695 0
2697 33 -2696 0
2698 -34 -2697 0
2699 36 -2698 0
-2700 2693 0
-2700 -2699 0
2701 -28 30 0
2702 -31 -2701 0
2703 32 -2702 0
2704 -33 -2703 0
2705 34 -2704 0
2706 35 -2705 0
2707 -36 -2706 0
-2708 2700 0
-2708 -2707 0
2709 -28 30 0
2710 -31 -2709 0
2711 -32 -2710 0
2712 33 -2711 0
2713 34 -2712 0
2714 35 -2713 0
2715 36 -2714 0
-2716 2708 0
-2716 -2715 0
2717 -28 -30 0
2718 31 -2717 0
2719 33 -2718 0
2720 34 -2719 0
2721 -35 -2720 0
2722 36 -2721 0
-2723 2716 0
-2723 -2722 0
2724 -28 -30 0
2725 31 -2724 0
2726 33 -2725 0
2727 -34 -2726 0
2728 -36 -2727 0
-2729 2723 0
-2729 -2728 0
2730 -28 -30 0
2731 31 -2730 0
2732 32 -2731 0
2733 -33 -2732 0
2734 36 -2733 0
-2735 2729 0
-2735 -2734 0
2736 -28 -30 0
2737 31 -2736 0
2738 -32 -2737 0
2739 34 -2738 0
2740 35 -2739 0
2741 -36 -2740 0
-2742 2735 0
-2742 -2741 0
2743 -28 -30 0
2744 31 -2743 0
2745 -32 -2744 0
2746 -34 -2745 0
2747 -35 -2746 0
2748 -36 -2747 0
-2749 2742 0
-2749 -2748 0
2750 -28 -30 0
2751 31 -2750 0
2752 -32 -2751 0
2753 33 -2752 0
2754 35 -2753 0
2755 -36 -2754 0
-2756 2749 0
-2756 -2755 0
2757 -28 -30 0
2758 -31 -2757 0
2759 -33 -2758 0
2760 34 -2759 0
2761 -35 -2760 0
2762 -36 -2761 0
-2763 2756 0
-2763 -2762 0
2764 -28 -30 0
2765 -31 -2764 0
2766 -32 -2765 0
2767 -34 -2766 0
2768 35 -2767 0
2769 36 -2768 0
-2770 2763 0
-2770 -2769 0
2771 -28 -30 0
2772 -31 -2771 0
2773 -32 -2772 0
2774 -33 -2773 0
2775 -35 -2774 0
2776 -36 -2775 0
-2777 2770 0
-2777 -2776 0
2778 -28 29 0
2779 -31 -2778 0
2780 -32 -2779 0
2781 33 -2780 0
2782 -34 -2781 0
2783 -35 -2782 0
2784 -36 -2783 0
-2785 2777 0
-2785 -2784 0
2786 -28 29 0
2787 30 -2786 0
2788 -31 -2787 0
2789 32 -2788 0
2790 -34 -2789 0
2791 35 -2790 0
2792 36 -2791 0
-2793 2785 0
-2793 -2792 0
2794 -28 29 0
2795 30 -2794 0
2796 -31 -2795 0
2797 -32 -2796 0
2798 33 -2797 0
2799 -35 -2798 0
2800 -36 -2799 0
-2801 2793 0
-2801 -2800 0
2802 -28 29 0
2803 -30 -2802 0
2804 33 -2803 0
2805 34 -2804 0
2806 -35 -2805 0
2807 36 -2806 0
-2808 2801 0
-2808 -2807 0
2809 -28 29 0
2810 -30 -2809 0
2811 33 -2810 0
2812 -34 -2811 0
2813 -35 -2812 0
2814 -36 -2813 0
-2815 2808 0
-2815 -2814 0
2816 -28 29 0
2817 -30 -2816 0
2818 -33 -2817 0
2819 -34 -2818 0
2820 35 -2819 0
2821 36 -2820 0
-2822 2815 0
-2822 -2821 0
2823 -28 29 0
2824 -30 -2823 0
2825 32 -2824 0
2826 33 -2825 0
2827 -34 -2826 0
2828 -36 -2827 0
-2829 2822 0
-2829 -2828 0
2830 -28 29 0
2831 -30 -2830 0
2832 32 -2831 0
2833 -33 -2832 0
2834 35 -2833 0
2835 36 -2834 0
-2836 2829 0
-2836 -2835 0
2837 -28 29 0
2838 -30 -2837 0
2839 -32 -2838 0
2840 34 -2839 0
2841 35 -2840 0
2842 -36 -2841 0
-2843 2836 0
-2843 -2842 0
2844 -28 29 0
2845 -30 -2844 0
2846 -32 -2845 0
2847 -33 -2846 0
2848 34 -2847 0
2849 -36 -2848 0
-2850 2843 0
-2850 -2849 0
2851 -28 -29 0
2852 31 -2851 0
2853 33 -2852 0
2854 34 -2853 0
2855 -35 -2854 0
2856 36 -2855 0
-2857 2850 0
-2857 -2856 0
2858 -28 -29 0
2859 31 -2858 0
2860 32 -2859 0
2861 33 -2860 0
2862 -34 -2861 0
2863 -36 -2862 0
-2864 2857 0
-2864 -2863 0
2865 -28 -29 0
2866 31 -2865 0
2867 32 -2866 0
2868 -33 -2867 0
2869 34 -2868 0
2870 35 -2869 0
2871 36 -2870 0
-2872 2864 0
-2872 -2871 0
2873 -28 -29 0
2874 -31 -2873 0
2875 34 -2874 0
2876 -35 -2875 0
2877 -36 -2876 0
-2878 2872 0
-2878 -2877 0
2879 -28 -29 0
2880 -31 -2879 0
2881 33 -2880 0
2882 -34 -2881 0
2883 36 -2882 0
-2884 2878 0
-2884 -2883 0
2885 -28 -29 0
2886 -31 -2885 0
2887 32 -2886 0
2888 -33 -2887 0
2889 -36 -2888 0
-2890 2884 0
-2890 -2889 0
2891 -28 -29 0
2892 -31 -2891 0
2893 -32 -2892 0
2894 33 -2893 0
2895 35 -2894 0
2896 36 -2895 0
-2897 2890 0
-2897 -2896 0
2898 -28 -29 0
2899 30 -2898 0
2900 -32 -2899 0
2901 33 -2900 0
2902 -34 -2901 0
2903 36 -2902 0
-2904 2897 0
-2904 -2903 0
2905 -28 -29 0
2906 30 -2905 0
2907 31 -2906 0
2908 32 -2907 0
2909 -34 -2908 0
2910 35 -2909 0
2911 -36 -2910 0
-2912 2904 0
-2912 -2911 0
2913 -28 -29 0
2914 30 -2913 0
2915 31 -2914 0
2916 -32 -2915 0
2917 33 -2916 0
2918 -35 -2917 0
2919 36 -2918 0
-2920 2912 0
-2920 -2919 0
2921 -28 -29 0
2922 30 -2921 0
2923 31 -2922 0
2924 -32 -2923 0
2925 -33 -2924 0
2926 34 -2925 0
2927 -36 -2926 0
-2928 2920 0
-2928 -2927 0
2929 -28 -29 0
2930 -30 -2929 0
2931 31 -2930 0
2932 34 -2931 0
2933 -35 -2932 0
2934 36 -2933 0
-2935 2928 0
-2935 -2934 0
2936 -28 -29 0
2937 -30 -2936 0
2938 31 -2937 0
2939 -32 -2938 0
2940 35 -2939 0
2941 -36 -2940 0
-2942 2935 0
-2942 -2941 0
2943 -28 -29 0
2944 -30 -2943 0
2945 -31 -2944 0
2946 -32 -2945 0
2947 35 -2946 0
2948 36 -2947 0
-2949 2942 0
-2949 -2948 0
-2950 1 0
-2950 2949 0
-2951 -15 0
-2951 -16 0
2951 15 16 0
-2952 -17 0
-2952 -18 0
2952 17 18 0
-2953 2951 0
-2953 2952 0
2953 -2951 -2952 0
-2954 -22 21 0
-2954 22 -21 0
2954 -22 -21 0
2954 22 21 0
-2955 -2953 2954 0
-2955 2953 -15 0
2955 -2953 -2954 0
2955 2953 15 0
-2956 -2955 -28 0
-2956 2955 28 0
-2957 1 0
-2957 2956 0
-2958 -2953 -19 0
-2958 2953 -16 0
2958 -2953 19 0
2958 2953 16 0
-2959 -2958 -29 0
-2959 2958 29 0
-2960 2957 0
-2960 2959 0
-2961 -2953 -20 0
-2961 2953 -17 0
2961 -2953 20 0
2961 2953 17 0
-2962 -2961 -30 0
-2962 2961 30 0
-2963 2960 0
-2963 2962 0
-2964 -2953 -21 0
-2964 2953 -18 0
2964 -2953 21 0
2964 2953 18 0
-2965 -2964 -31 0
-2965 2964 31 0
-2966 2963 0
-2966 2965 0
-2967 -2953 -23 0
-2967 2953 -15 0
2967 -2953 23 0
2967 2953 15 0
-2968 -2967 -32 0
-2968 2967 32 0
-2969 2966 0
-2969 2968 0
-2970 -2953 -24 0
-2970 2953 -16 0
2970 -2953 24 0
2970 2953 16 0
-2971 -2970 -33 0
-2971 2970 33 0
-2972 2969 0
-2972 2971 0
-2973 -2953 -25 0
-2973 2953 -17 0
2973 -2953 25 0
2973 2953 17 0
-2974 -2973 -34 0
-2974 2973 34 0
-2975 2972 0
-2975 2974 0
-2976 -2953 -26 0
-2976 2953 -18 0
2976 -2953 26 0
2976 2953 18 0
-2977 -2976 -35 0
-2977 2976 35 0
-2978 2975 0
-2978 2977 0
-2979 -23 0
-2979 -24 0
2979 23 24 0
-2980 -25 0
-2980 -26 0
2980 25 26 0
-2981 2979 0
-2981 2980 0
2981 -2979 -2980 0
-2982 2954 -23 0
-2982 -2954 23 0
2982 2954 23 0
2982 -2954 -23 0
-2983 -24 -19 0
-2983 24 19 0
2983 -24 19 0
2983 24 -19 0
-2984 -2982 0
-2984 -2983 0
2984 2982 2983 0
-2985 -25 -20 0
-2985 25 20 0
2985 -25 20 0
2985 25 -20 0
-2986 -26 -21 0
-2986 26 21 0
2986 -26 21 0
2986 26 -21 0
-2987 -2985 0
-2987 -2986 0
2987 2985 2986 0
-2988 2984 0
-2988 2987 0
2988 -2984 -2987 0
-2989 -2981 0
-2989 2988 0
2989 2981 -2988 0
-2990 2953 0
-2990 -2989 0
2990 -2953 2989 0
-2991 -27 0
-2991 2990 0
2991 27 -2990 0
-2992 2991 -36 0
-2992 -2991 36 0
-2993 2978 0
-2993 2992 0
-2994 1 0
-2994 1 0
-2995 1018 0
-2995 2994 0
-2996 1 0
-2996 2995 0
-2997 1993 0
-2997 2996 0
-2998 1 0
-2998 2997 0
-2999 2950 0
-2999 2998 0
-3000 1036 0
-3000 2999 0
-3001 2993 0
-3001 3000 0
-3002 1 0
-3002 3001 0
-3003 1 0
-3003 3002 0
-3004 -1 0
-3004 3003 0
3004 0
