p cnf 1986 2324
1 0
-24 -2 0
-24 -3 0
24 2 3 0
-25 -4 0
-25 -5 0
25 4 5 0
-26 24 0
-26 25 0
26 -24 -25 0
-27 -9 8 0
-27 9 -8 0
27 -9 -8 0
27 9 8 0
-28 -26 27 0
-28 26 -2 0
28 -26 -27 0
28 26 2 0
-29 -26 -6 0
-29 26 -3 0
29 -26 6 0
29 26 3 0
-30 -26 -7 0
-30 26 -4 0
30 -26 7 0
30 26 4 0
-31 -26 -8 0
-31 26 -5 0
31 -26 8 0
31 26 5 0
-32 -26 -10 0
-32 26 -2 0
32 -26 10 0
32 26 2 0
-33 -26 -11 0
-33 26 -3 0
33 -26 11 0
33 26 3 0
-34 -26 -12 0
-34 26 -4 0
34 -26 12 0
34 26 4 0
-35 -26 -13 0
-35 26 -5 0
35 -26 13 0
35 26 5 0
-36 -10 0
-36 -11 0
36 10 11 0
-37 -12 0
-37 -13 0
37 12 13 0
-38 36 0
-38 37 0
38 -36 -37 0
-39 27 -10 0
-39 -27 10 0
39 27 10 0
39 -27 -10 0
-40 -11 -6 0
-40 11 6 0
40 -11 6 0
40 11 -6 0
-41 -39 0
-41 -40 0
41 39 40 0
-42 -12 -7 0
-42 12 7 0
42 -12 7 0
42 12 -7 0
-43 -13 -8 0
-43 13 8 0
43 -13 8 0
43 13 -8 0
-44 -42 0
-44 -43 0
44 42 43 0
-45 41 0
-45 44 0
45 -41 -44 0
-46 -38 0
-46 45 0
46 38 -45 0
-47 26 0
-47 -46 0
47 -26 46 0
-48 -14 0
-48 47 0
48 14 -47 0
49 8 -9 0
50 10 -49 0
51 11 -50 0
52 12 -51 0
53 -13 -52 0
54 8 -9 0
55 10 -54 0
56 11 -55 0
57 -12 -56 0
58 -13 -57 0
-59 14 -58 0
-59 -14 -53 0
60 8 -9 0
61 10 -60 0
62 -11 -61 0
63 -12 -62 0
64 -13 -63 0
65 -14 -64 0
-66 59 0
-66 -65 0
67 8 -9 0
68 -10 -67 0
69 -11 -68 0
70 -12 -69 0
71 13 -70 0
72 -14 -71 0
-73 66 0
-73 -72 0
74 8 -9 0
75 -10 -74 0
76 -11 -75 0
77 -12 -76 0
78 -13 -77 0
79 14 -78 0
-80 73 0
-80 -79 0
81 7 9 0
82 10 -81 0
83 11 -82 0
84 12 -83 0
85 -13 -84 0
86 14 -85 0
-87 80 0
-87 -86 0
88 7 9 0
89 10 -88 0
90 11 -89 0
91 -12 -90 0
92 -13 -91 0
93 -14 -92 0
-94 87 0
-94 -93 0
95 7 9 0
96 -10 -95 0
97 -11 -96 0
98 -13 -97 0
99 -14 -98 0
-100 94 0
-100 -99 0
101 7 9 0
102 -10 -101 0
103 -11 -102 0
104 -12 -103 0
105 13 -104 0
106 14 -105 0
-107 100 0
-107 -106 0
108 7 8 0
109 9 -108 0
110 11 -109 0
111 -12 -110 0
112 13 -111 0
113 14 -112 0
-114 107 0
-114 -113 0
115 7 8 0
116 9 -115 0
117 10 -116 0
118 -11 -117 0
119 13 -118 0
120 -14 -119 0
-121 114 0
-121 -120 0
122 7 8 0
123 9 -122 0
124 10 -123 0
125 -11 -124 0
126 12 -125 0
127 -14 -126 0
-128 121 0
-128 -127 0
129 7 8 0
130 9 -129 0
131 -10 -130 0
132 12 -131 0
133 -13 -132 0
134 -14 -133 0
-135 128 0
-135 -134 0
136 7 8 0
137 9 -136 0
138 -10 -137 0
139 11 -138 0
140 12 -139 0
141 -14 -140 0
-142 135 0
-142 -141 0
143 7 8 0
144 9 -143 0
145 -10 -144 0
146 11 -145 0
147 -12 -146 0
148 14 -147 0
-149 142 0
-149 -148 0
150 7 8 0
151 9 -150 0
152 -10 -151 0
153 -11 -152 0
154 13 -153 0
155 14 -154 0
-156 149 0
-156 -155 0
157 7 8 0
158 -9 -157 0
159 -11 -158 0
160 12 -159 0
161 -13 -160 0
162 14 -161 0
-163 156 0
-163 -162 0
164 7 8 0
165 -9 -164 0
166 -10 -165 0
167 11 -166 0
168 -12 -167 0
169 -14 -168 0
-170 163 0
-170 -169 0
171 7 8 0
172 -9 -171 0
173 -10 -172 0
174 -11 -173 0
175 13 -174 0
176 -14 -175 0
-177 170 0
-177 -176 0
178 7 8 0
179 -9 -178 0
180 -10 -179 0
181 -11 -180 0
182 -13 -181 0
183 14 -182 0
-184 177 0
-184 -183 0
185 7 -8 0
186 10 -185 0
187 11 -186 0
188 -12 -187 0
189 -13 -188 0
190 -14 -189 0
-191 184 0
-191 -190 0
192 7 -8 0
193 10 -192 0
194 -11 -193 0
195 -12 -194 0
196 -13 -195 0
197 14 -196 0
-198 191 0
-198 -197 0
199 7 -8 0
200 -10 -199 0
201 -11 -200 0
202 -13 -201 0
203 -14 -202 0
-204 198 0
-204 -203 0
205 7 -8 0
206 -10 -205 0
207 -11 -206 0
208 -12 -207 0
209 13 -208 0
210 14 -209 0
-211 204 0
-211 -210 0
212 7 -8 0
213 -9 -212 0
214 -11 -213 0
215 12 -214 0
216 -13 -215 0
217 -14 -216 0
-218 211 0
-218 -217 0
219 7 -8 0
220 -9 -219 0
221 -10 -220 0
222 -12 -221 0
223 13 -222 0
224 14 -223 0
-225 218 0
-225 -224 0
226 -7 -9 0
227 10 -226 0
228 -11 -227 0
229 -12 -228 0
230 -13 -229 0
231 -14 -230 0
-232 225 0
-232 -231 0
233 -7 8 0
234 -9 -233 0
235 11 -234 0
236 12 -235 0
237 -13 -236 0
238 -14 -237 0
-239 232 0
-239 -238 0
240 -7 8 0
241 -9 -240 0
242 10 -241 0
243 11 -242 0
244 -12 -243 0
245 14 -244 0
-246 239 0
-246 -245 0
247 -7 8 0
248 -9 -247 0
249 10 -248 0
250 -11 -249 0
251 -14 -250 0
-252 246 0
-252 -251 0
253 -7 8 0
254 -9 -253 0
255 -10 -254 0
256 12 -255 0
257 13 -256 0
258 14 -257 0
-259 252 0
-259 -258 0
260 -7 8 0
261 -9 -260 0
262 -10 -261 0
263 -12 -262 0
264 -13 -263 0
265 14 -264 0
-266 259 0
-266 -265 0
267 -7 -8 0
268 9 -267 0
269 -10 -268 0
270 11 -269 0
271 -12 -270 0
272 -14 -271 0
-273 266 0
-273 -272 0
274 -7 -8 0
275 9 -274 0
276 -10 -275 0
277 -11 -276 0
278 -12 -277 0
279 13 -278 0
280 -14 -279 0
-281 273 0
-281 -280 0
282 6 8 0
283 10 -282 0
284 11 -283 0
285 -12 -284 0
286 -13 -285 0
287 14 -286 0
-288 281 0
-288 -287 0
289 6 8 0
290 -10 -289 0
291 -12 -290 0
292 13 -291 0
293 -14 -292 0
-294 288 0
-294 -293 0
295 6 8 0
296 -10 -295 0
297 -11 -296 0
298 -13 -297 0
299 14 -298 0
-300 294 0
-300 -299 0
301 6 8 0
302 9 -301 0
303 11 -302 0
304 -12 -303 0
305 13 -304 0
306 -14 -305 0
-307 300 0
-307 -306 0
308 6 8 0
309 9 -308 0
310 -11 -309 0
311 12 -310 0
312 -13 -311 0
313 14 -312 0
-314 307 0
-314 -313 0
315 6 8 0
316 9 -315 0
317 10 -316 0
318 -11 -317 0
319 -12 -318 0
320 13 -319 0
321 14 -320 0
-322 314 0
-322 -321 0
323 6 8 0
324 9 -323 0
325 -10 -324 0
326 12 -325 0
327 -13 -326 0
328 14 -327 0
-329 322 0
-329 -328 0
330 6 8 0
331 9 -330 0
332 -10 -331 0
333 11 -332 0
334 -12 -333 0
335 -14 -334 0
-336 329 0
-336 -335 0
337 6 8 0
338 9 -337 0
339 -10 -338 0
340 -11 -339 0
341 13 -340 0
342 -14 -341 0
-343 336 0
-343 -342 0
344 6 -8 0
345 -9 -344 0
346 10 -345 0
347 11 -346 0
348 -12 -347 0
349 -13 -348 0
350 -14 -349 0
-351 343 0
-351 -350 0
352 6 7 0
353 9 -352 0
354 -11 -353 0
355 12 -354 0
356 13 -355 0
357 14 -356 0
-358 351 0
-358 -357 0
359 6 7 0
360 9 -359 0
361 -11 -360 0
362 12 -361 0
363 -13 -362 0
364 -14 -363 0
-365 358 0
-365 -364 0
366 6 7 0
367 9 -366 0
368 10 -367 0
369 -12 -368 0
370 13 -369 0
371 -14 -370 0
-372 365 0
-372 -371 0
373 6 7 0
374 9 -373 0
375 10 -374 0
376 11 -375 0
377 -12 -376 0
378 -14 -377 0
-379 372 0
-379 -378 0
380 6 7 0
381 9 -380 0
382 -10 -381 0
383 12 -382 0
384 -13 -383 0
385 -14 -384 0
-386 379 0
-386 -385 0
387 6 7 0
388 9 -387 0
389 -10 -388 0
390 11 -389 0
391 12 -390 0
392 -14 -391 0
-393 386 0
-393 -392 0
394 6 7 0
395 9 -394 0
396 -10 -395 0
397 11 -396 0
398 -12 -397 0
399 14 -398 0
-400 393 0
-400 -399 0
401 6 7 0
402 9 -401 0
403 -10 -402 0
404 -11 -403 0
405 13 -404 0
406 14 -405 0
-407 400 0
-407 -406 0
408 6 7 0
409 -9 -408 0
410 10 -409 0
411 11 -410 0
412 12 -411 0
413 -13 -412 0
414 -14 -413 0
-415 407 0
-415 -414 0
416 6 7 0
417 8 -416 0
418 11 -417 0
419 -12 -418 0
420 13 -419 0
421 -14 -420 0
-422 415 0
-422 -421 0
423 6 7 0
424 8 -423 0
425 10 -424 0
426 -11 -425 0
427 13 -426 0
428 14 -427 0
-429 422 0
-429 -428 0
430 6 7 0
431 8 -430 0
432 10 -431 0
433 -11 -432 0
434 12 -433 0
435 14 -434 0
-436 429 0
-436 -435 0
437 6 7 0
438 8 -437 0
439 -10 -438 0
440 13 -439 0
441 -14 -440 0
-442 436 0
-442 -441 0
443 6 7 0
444 8 -443 0
445 -10 -444 0
446 12 -445 0
447 -13 -446 0
448 14 -447 0
-449 442 0
-449 -448 0
450 6 7 0
451 8 -450 0
452 9 -451 0
453 -13 -452 0
-454 449 0
-454 -453 0
455 6 7 0
456 8 -455 0
457 9 -456 0
458 -12 -457 0
-459 454 0
-459 -458 0
460 6 7 0
461 8 -460 0
462 9 -461 0
463 -11 -462 0
-464 459 0
-464 -463 0
465 6 7 0
466 8 -465 0
467 9 -466 0
468 -10 -467 0
-469 464 0
-469 -468 0
470 6 7 0
471 -8 -470 0
472 -10 -471 0
473 12 -472 0
474 -13 -473 0
475 -14 -474 0
-476 469 0
-476 -475 0
477 6 7 0
478 -8 -477 0
479 -10 -478 0
480 11 -479 0
481 -12 -480 0
482 14 -481 0
-483 476 0
-483 -482 0
484 6 7 0
485 -8 -484 0
486 -10 -485 0
487 -11 -486 0
488 13 -487 0
489 14 -488 0
-490 483 0
-490 -489 0
491 6 7 0
492 -8 -491 0
493 -9 -492 0
494 12 -493 0
495 -13 -494 0
496 -14 -495 0
-497 490 0
-497 -496 0
498 6 7 0
499 -8 -498 0
500 -9 -499 0
501 11 -500 0
502 -12 -501 0
503 13 -502 0
504 14 -503 0
-505 497 0
-505 -504 0
506 6 7 0
507 -8 -506 0
508 -9 -507 0
509 10 -508 0
510 11 -509 0
511 -13 -510 0
512 -14 -511 0
-513 505 0
-513 -512 0
514 6 7 0
515 -8 -514 0
516 -9 -515 0
517 10 -516 0
518 -11 -517 0
519 13 -518 0
520 -14 -519 0
-521 513 0
-521 -520 0
522 6 7 0
523 -8 -522 0
524 -9 -523 0
525 -10 -524 0
526 13 -525 0
527 14 -526 0
-528 521 0
-528 -527 0
529 6 -7 0
530 10 -529 0
531 -11 -530 0
532 -12 -531 0
533 -13 -532 0
534 -14 -533 0
-535 528 0
-535 -534 0
536 6 -7 0
537 -10 -536 0
538 -11 -537 0
539 -13 -538 0
540 14 -539 0
-541 535 0
-541 -540 0
542 6 -7 0
543 -10 -542 0
544 -11 -543 0
545 -12 -544 0
546 13 -545 0
547 -14 -546 0
-548 541 0
-548 -547 0
549 6 -7 0
550 9 -549 0
551 -11 -550 0
552 12 -551 0
553 -13 -552 0
554 14 -553 0
-555 548 0
-555 -554 0
556 6 -7 0
557 9 -556 0
558 10 -557 0
559 11 -558 0
560 12 -559 0
561 -13 -560 0
562 -14 -561 0
-563 555 0
-563 -562 0
564 6 -7 0
565 9 -564 0
566 10 -565 0
567 11 -566 0
568 -12 -567 0
569 -13 -568 0
570 14 -569 0
-571 563 0
-571 -570 0
572 6 -7 0
573 9 -572 0
574 10 -573 0
575 -11 -574 0
576 12 -575 0
577 13 -576 0
578 -14 -577 0
-579 571 0
-579 -578 0
580 6 -7 0
581 9 -580 0
582 -10 -581 0
583 -12 -582 0
584 13 -583 0
585 -14 -584 0
-586 579 0
-586 -585 0
587 6 -7 0
588 9 -587 0
589 -10 -588 0
590 11 -589 0
591 12 -590 0
592 13 -591 0
593 14 -592 0
-594 586 0
-594 -593 0
595 6 -7 0
596 9 -595 0
597 -10 -596 0
598 11 -597 0
599 -12 -598 0
600 -14 -599 0
-601 594 0
-601 -600 0
602 6 -7 0
603 8 -602 0
604 -9 -603 0
605 -10 -604 0
606 -11 -605 0
607 12 -606 0
608 14 -607 0
-609 601 0
-609 -608 0
610 6 -7 0
611 -8 -610 0
612 -10 -611 0
613 11 -612 0
614 -12 -613 0
615 -14 -614 0
-616 609 0
-616 -615 0
617 6 -7 0
618 -8 -617 0
619 9 -618 0
620 10 -619 0
621 11 -620 0
622 -12 -621 0
623 14 -622 0
-624 616 0
-624 -623 0
625 6 -7 0
626 -8 -625 0
627 9 -626 0
628 10 -627 0
629 -11 -628 0
630 13 -629 0
631 -14 -630 0
-632 624 0
-632 -631 0
633 6 -7 0
634 -8 -633 0
635 9 -634 0
636 -10 -635 0
637 11 -636 0
638 -13 -637 0
639 -14 -638 0
-640 632 0
-640 -639 0
641 6 -7 0
642 -8 -641 0
643 9 -642 0
644 -10 -643 0
645 -11 -644 0
646 12 -645 0
647 14 -646 0
-648 640 0
-648 -647 0
649 6 -7 0
650 -8 -649 0
651 -9 -650 0
652 12 -651 0
653 -13 -652 0
654 14 -653 0
-655 648 0
-655 -654 0
656 6 -7 0
657 -8 -656 0
658 -9 -657 0
659 11 -658 0
660 -12 -659 0
661 -14 -660 0
-662 655 0
-662 -661 0
663 6 -7 0
664 -8 -663 0
665 -9 -664 0
666 10 -665 0
667 -11 -666 0
668 13 -667 0
669 14 -668 0
-670 662 0
-670 -669 0
671 6 -7 0
672 -8 -671 0
673 -9 -672 0
674 -10 -673 0
675 13 -674 0
676 -14 -675 0
-677 670 0
-677 -676 0
678 -6 9 0
679 10 -678 0
680 11 -679 0
681 12 -680 0
682 -13 -681 0
683 14 -682 0
-684 677 0
-684 -683 0
685 -6 9 0
686 10 -685 0
687 11 -686 0
688 -12 -687 0
689 -13 -688 0
690 -14 -689 0
-691 684 0
-691 -690 0
692 -6 9 0
693 10 -692 0
694 -11 -693 0
695 -12 -694 0
696 -13 -695 0
697 14 -696 0
-698 691 0
-698 -697 0
699 -6 9 0
700 -10 -699 0
701 11 -700 0
702 12 -701 0
703 13 -702 0
704 -14 -703 0
-705 698 0
-705 -704 0
706 -6 9 0
707 -10 -706 0
708 -11 -707 0
709 -12 -708 0
710 -13 -709 0
711 -14 -710 0
-712 705 0
-712 -711 0
713 -6 8 0
714 9 -713 0
715 -11 -714 0
716 12 -715 0
717 -13 -716 0
718 -14 -717 0
-719 712 0
-719 -718 0
720 -6 8 0
721 9 -720 0
722 -10 -721 0
723 11 -722 0
724 -12 -723 0
725 14 -724 0
-726 719 0
-726 -725 0
727 -6 8 0
728 9 -727 0
729 -10 -728 0
730 -11 -729 0
731 -13 -730 0
732 -14 -731 0
-733 726 0
-733 -732 0
734 -6 8 0
735 9 -734 0
736 -10 -735 0
737 -11 -736 0
738 -12 -737 0
739 13 -738 0
740 14 -739 0
-741 733 0
-741 -740 0
742 -6 8 0
743 -9 -742 0
744 11 -743 0
745 12 -744 0
746 -13 -745 0
747 -14 -746 0
-748 741 0
-748 -747 0
749 -6 8 0
750 -9 -749 0
751 10 -750 0
752 11 -751 0
753 -12 -752 0
754 14 -753 0
-755 748 0
-755 -754 0
756 -6 8 0
757 -9 -756 0
758 10 -757 0
759 -11 -758 0
760 12 -759 0
761 13 -760 0
762 -14 -761 0
-763 755 0
-763 -762 0
764 -6 8 0
765 -9 -764 0
766 -10 -765 0
767 11 -766 0
768 12 -767 0
769 13 -768 0
770 14 -769 0
-771 763 0
-771 -770 0
772 -6 -8 0
773 9 -772 0
774 11 -773 0
775 12 -774 0
776 -13 -775 0
777 14 -776 0
-778 771 0
-778 -777 0
779 -6 -8 0
780 9 -779 0
781 11 -780 0
782 -12 -781 0
783 -14 -782 0
-784 778 0
-784 -783 0
785 -6 -8 0
786 9 -785 0
787 10 -786 0
788 -11 -787 0
789 14 -788 0
-790 784 0
-790 -789 0
791 -6 -8 0
792 9 -791 0
793 -10 -792 0
794 12 -793 0
795 13 -794 0
796 -14 -795 0
-797 790 0
-797 -796 0
798 -6 -8 0
799 9 -798 0
800 -10 -799 0
801 -12 -800 0
802 -13 -801 0
803 -14 -802 0
-804 797 0
-804 -803 0
805 -6 -8 0
806 9 -805 0
807 -10 -806 0
808 11 -807 0
809 13 -808 0
810 -14 -809 0
-811 804 0
-811 -810 0
812 -6 -8 0
813 -9 -812 0
814 -11 -813 0
815 12 -814 0
816 -13 -815 0
817 -14 -816 0
-818 811 0
-818 -817 0
819 -6 -8 0
820 -9 -819 0
821 -10 -820 0
822 -12 -821 0
823 13 -822 0
824 14 -823 0
-825 818 0
-825 -824 0
826 -6 -8 0
827 -9 -826 0
828 -10 -827 0
829 -11 -828 0
830 -13 -829 0
831 -14 -830 0
-832 825 0
-832 -831 0
833 -6 7 0
834 -9 -833 0
835 -10 -834 0
836 11 -835 0
837 -12 -836 0
838 -13 -837 0
839 -14 -838 0
-840 832 0
-840 -839 0
841 -6 7 0
842 8 -841 0
843 -9 -842 0
844 10 -843 0
845 -12 -844 0
846 13 -845 0
847 14 -846 0
-848 840 0
-848 -847 0
849 -6 7 0
850 8 -849 0
851 -9 -850 0
852 -10 -851 0
853 11 -852 0
854 -13 -853 0
855 -14 -854 0
-856 848 0
-856 -855 0
857 -6 7 0
858 -8 -857 0
859 11 -858 0
860 12 -859 0
861 -13 -860 0
862 14 -861 0
-863 856 0
-863 -862 0
864 -6 7 0
865 -8 -864 0
866 11 -865 0
867 -12 -866 0
868 -13 -867 0
869 -14 -868 0
-870 863 0
-870 -869 0
871 -6 7 0
872 -8 -871 0
873 -11 -872 0
874 -12 -873 0
875 13 -874 0
876 14 -875 0
-877 870 0
-877 -876 0
878 -6 7 0
879 -8 -878 0
880 10 -879 0
881 11 -880 0
882 -12 -881 0
883 -14 -882 0
-884 877 0
-884 -883 0
885 -6 7 0
886 -8 -885 0
887 10 -886 0
888 -11 -887 0
889 13 -888 0
890 14 -889 0
-891 884 0
-891 -890 0
892 -6 7 0
893 -8 -892 0
894 -10 -893 0
895 12 -894 0
896 13 -895 0
897 -14 -896 0
-898 891 0
-898 -897 0
899 -6 7 0
900 -8 -899 0
901 -10 -900 0
902 -11 -901 0
903 12 -902 0
904 -14 -903 0
-905 898 0
-905 -904 0
906 -6 -7 0
907 9 -906 0
908 11 -907 0
909 12 -908 0
910 -13 -909 0
911 14 -910 0
-912 905 0
-912 -911 0
913 -6 -7 0
914 9 -913 0
915 10 -914 0
916 11 -915 0
917 -12 -916 0
918 -14 -917 0
-919 912 0
-919 -918 0
920 -6 -7 0
921 9 -920 0
922 10 -921 0
923 -11 -922 0
924 12 -923 0
925 13 -924 0
926 14 -925 0
-927 919 0
-927 -926 0
928 -6 -7 0
929 -9 -928 0
930 12 -929 0
931 -13 -930 0
932 -14 -931 0
-933 927 0
-933 -932 0
934 -6 -7 0
935 -9 -934 0
936 11 -935 0
937 -12 -936 0
938 14 -937 0
-939 933 0
-939 -938 0
940 -6 -7 0
941 -9 -940 0
942 10 -941 0
943 -11 -942 0
944 -14 -943 0
-945 939 0
-945 -944 0
946 -6 -7 0
947 -9 -946 0
948 -10 -947 0
949 11 -948 0
950 13 -949 0
951 14 -950 0
-952 945 0
-952 -951 0
953 -6 -7 0
954 8 -953 0
955 -10 -954 0
956 11 -955 0
957 -12 -956 0
958 14 -957 0
-959 952 0
-959 -958 0
960 -6 -7 0
961 8 -960 0
962 9 -961 0
963 10 -962 0
964 -12 -963 0
965 13 -964 0
966 -14 -965 0
-967 959 0
-967 -966 0
968 -6 -7 0
969 8 -968 0
970 9 -969 0
971 -10 -970 0
972 11 -971 0
973 -13 -972 0
974 14 -973 0
-975 967 0
-975 -974 0
976 -6 -7 0
977 8 -976 0
978 9 -977 0
979 -10 -978 0
980 -11 -979 0
981 12 -980 0
982 -14 -981 0
-983 975 0
-983 -982 0
984 -6 -7 0
985 -8 -984 0
986 9 -985 0
987 12 -986 0
988 -13 -987 0
989 14 -988 0
-990 983 0
-990 -989 0
991 -6 -7 0
992 -8 -991 0
993 9 -992 0
994 -10 -993 0
995 13 -994 0
996 -14 -995 0
-997 990 0
-997 -996 0
998 -6 -7 0
999 -8 -998 0
1000 -9 -999 0
1001 -10 -1000 0
1002 13 -1001 0
1003 14 -1002 0
-1004 997 0
-1004 -1003 0
-1005 1 0
-1005 1004 0
-1006 -28 -15 0
-1006 28 15 0
-1007 1 0
-1007 1006 0
-1008 -29 -16 0
-1008 29 16 0
-1009 1007 0
-1009 1008 0
-1010 -30 -17 0
-1010 30 17 0
-1011 1009 0
-1011 1010 0
-1012 -31 -18 0
-1012 31 18 0
-1013 1011 0
-1013 1012 0
-1014 -32 -19 0
-1014 32 19 0
-1015 1013 0
-1015 1014 0
-1016 -33 -20 0
-1016 33 20 0
-1017 1015 0
-1017 1016 0
-1018 -34 -21 0
-1018 34 21 0
-1019 1017 0
-1019 1018 0
-1020 -35 -22 0
-1020 35 22 0
-1021 1019 0
-1021 1020 0
-1022 48 -23 0
-1022 -48 23 0
-1023 1021 0
-1023 1022 0
1024 17 -18 0
1025 19 -1024 0
1026 20 -1025 0
1027 21 -1026 0
1028 -22 -1027 0
1029 17 -18 0
1030 19 -1029 0
1031 20 -1030 0
1032 -21 -1031 0
1033 -22 -1032 0
-1034 23 -1033 0
-1034 -23 -1028 0
1035 17 -18 0
1036 19 -1035 0
1037 -20 -1036 0
1038 -21 -1037 0
1039 -22 -1038 0
1040 -23 -1039 0
-1041 1034 0
-1041 -1040 0
1042 17 -18 0
1043 -19 -1042 0
1044 -20 -1043 0
1045 -21 -1044 0
1046 22 -1045 0
1047 -23 -1046 0
-1048 1041 0
-1048 -1047 0
1049 17 -18 0
1050 -19 -1049 0
1051 -20 -1050 0
1052 -21 -1051 0
1053 -22 -1052 0
1054 23 -1053 0
-1055 1048 0
-1055 -1054 0
1056 16 18 0
1057 19 -1056 0
1058 20 -1057 0
1059 21 -1058 0
1060 -22 -1059 0
1061 23 -1060 0
-1062 1055 0
-1062 -1061 0
1063 16 18 0
1064 19 -1063 0
1065 20 -1064 0
1066 -21 -1065 0
1067 -22 -1066 0
1068 -23 -1067 0
-1069 1062 0
-1069 -1068 0
1070 16 18 0
1071 -19 -1070 0
1072 -20 -1071 0
1073 -22 -1072 0
1074 -23 -1073 0
-1075 1069 0
-1075 -1074 0
1076 16 18 0
1077 -19 -1076 0
1078 -20 -1077 0
1079 -21 -1078 0
1080 22 -1079 0
1081 23 -1080 0
-1082 1075 0
-1082 -1081 0
1083 16 17 0
1084 18 -1083 0
1085 20 -1084 0
1086 -21 -1085 0
1087 22 -1086 0
1088 23 -1087 0
-1089 1082 0
-1089 -1088 0
1090 16 17 0
1091 18 -1090 0
1092 19 -1091 0
1093 -20 -1092 0
1094 22 -1093 0
1095 -23 -1094 0
-1096 1089 0
-1096 -1095 0
1097 16 17 0
1098 18 -1097 0
1099 19 -1098 0
1100 -20 -1099 0
1101 21 -1100 0
1102 -23 -1101 0
-1103 1096 0
-1103 -1102 0
1104 16 17 0
1105 18 -1104 0
1106 -19 -1105 0
1107 21 -1106 0
1108 -22 -1107 0
1109 -23 -1108 0
-1110 1103 0
-1110 -1109 0
1111 16 17 0
1112 18 -1111 0
1113 -19 -1112 0
1114 20 -1113 0
1115 21 -1114 0
1116 -23 -1115 0
-1117 1110 0
-1117 -1116 0
1118 16 17 0
1119 18 -1118 0
1120 -19 -1119 0
1121 20 -1120 0
1122 -21 -1121 0
1123 23 -1122 0
-1124 1117 0
-1124 -1123 0
1125 16 17 0
1126 18 -1125 0
1127 -19 -1126 0
1128 -20 -1127 0
1129 22 -1128 0
1130 23 -1129 0
-1131 1124 0
-1131 -1130 0
1132 16 17 0
1133 -18 -1132 0
1134 -20 -1133 0
1135 21 -1134 0
1136 -22 -1135 0
1137 23 -1136 0
-1138 1131 0
-1138 -1137 0
1139 16 17 0
1140 -18 -1139 0
1141 -19 -1140 0
1142 20 -1141 0
1143 -21 -1142 0
1144 -23 -1143 0
-1145 1138 0
-1145 -1144 0
1146 16 17 0
1147 -18 -1146 0
1148 -19 -1147 0
1149 -20 -1148 0
1150 22 -1149 0
1151 -23 -1150 0
-1152 1145 0
-1152 -1151 0
1153 16 17 0
1154 -18 -1153 0
1155 -19 -1154 0
1156 -20 -1155 0
1157 -22 -1156 0
1158 23 -1157 0
-1159 1152 0
-1159 -1158 0
1160 16 -17 0
1161 19 -1160 0
1162 20 -1161 0
1163 -21 -1162 0
1164 -22 -1163 0
1165 -23 -1164 0
-1166 1159 0
-1166 -1165 0
1167 16 -17 0
1168 19 -1167 0
1169 -20 -1168 0
1170 -21 -1169 0
1171 -22 -1170 0
1172 23 -1171 0
-1173 1166 0
-1173 -1172 0
1174 16 -17 0
1175 -19 -1174 0
1176 -20 -1175 0
1177 -22 -1176 0
1178 -23 -1177 0
-1179 1173 0
-1179 -1178 0
1180 16 -17 0
1181 -19 -1180 0
1182 -20 -1181 0
1183 -21 -1182 0
1184 22 -1183 0
1185 23 -1184 0
-1186 1179 0
-1186 -1185 0
1187 16 -17 0
1188 -18 -1187 0
1189 -20 -1188 0
1190 21 -1189 0
1191 -22 -1190 0
1192 -23 -1191 0
-1193 1186 0
-1193 -1192 0
1194 16 -17 0
1195 -18 -1194 0
1196 -19 -1195 0
1197 -21 -1196 0
1198 22 -1197 0
1199 23 -1198 0
-1200 1193 0
-1200 -1199 0
1201 -16 -18 0
1202 19 -1201 0
1203 -20 -1202 0
1204 -21 -1203 0
1205 -22 -1204 0
1206 -23 -1205 0
-1207 1200 0
-1207 -1206 0
1208 -16 17 0
1209 -18 -1208 0
1210 20 -1209 0
1211 21 -1210 0
1212 -22 -1211 0
1213 -23 -1212 0
-1214 1207 0
-1214 -1213 0
1215 -16 17 0
1216 -18 -1215 0
1217 19 -1216 0
1218 20 -1217 0
1219 -21 -1218 0
1220 23 -1219 0
-1221 1214 0
-1221 -1220 0
1222 -16 17 0
1223 -18 -1222 0
1224 19 -1223 0
1225 -20 -1224 0
1226 -23 -1225 0
-1227 1221 0
-1227 -1226 0
1228 -16 17 0
1229 -18 -1228 0
1230 -19 -1229 0
1231 21 -1230 0
1232 22 -1231 0
1233 23 -1232 0
-1234 1227 0
-1234 -1233 0
1235 -16 17 0
1236 -18 -1235 0
1237 -19 -1236 0
1238 -21 -1237 0
1239 -22 -1238 0
1240 23 -1239 0
-1241 1234 0
-1241 -1240 0
1242 -16 -17 0
1243 18 -1242 0
1244 -19 -1243 0
1245 20 -1244 0
1246 -21 -1245 0
1247 -23 -1246 0
-1248 1241 0
-1248 -1247 0
1249 -16 -17 0
1250 18 -1249 0
1251 -19 -1250 0
1252 -20 -1251 0
1253 -21 -1252 0
1254 22 -1253 0
1255 -23 -1254 0
-1256 1248 0
-1256 -1255 0
1257 15 17 0
1258 19 -1257 0
1259 20 -1258 0
1260 -21 -1259 0
1261 -22 -1260 0
1262 23 -1261 0
-1263 1256 0
-1263 -1262 0
1264 15 17 0
1265 -19 -1264 0
1266 -21 -1265 0
1267 22 -1266 0
1268 -23 -1267 0
-1269 1263 0
-1269 -1268 0
1270 15 17 0
1271 -19 -1270 0
1272 -20 -1271 0
1273 -22 -1272 0
1274 23 -1273 0
-1275 1269 0
-1275 -1274 0
1276 15 17 0
1277 18 -1276 0
1278 20 -1277 0
1279 -21 -1278 0
1280 22 -1279 0
1281 -23 -1280 0
-1282 1275 0
-1282 -1281 0
1283 15 17 0
1284 18 -1283 0
1285 -20 -1284 0
1286 21 -1285 0
1287 -22 -1286 0
1288 23 -1287 0
-1289 1282 0
-1289 -1288 0
1290 15 17 0
1291 18 -1290 0
1292 19 -1291 0
1293 -20 -1292 0
1294 -21 -1293 0
1295 22 -1294 0
1296 23 -1295 0
-1297 1289 0
-1297 -1296 0
1298 15 17 0
1299 18 -1298 0
1300 -19 -1299 0
1301 21 -1300 0
1302 -22 -1301 0
1303 23 -1302 0
-1304 1297 0
-1304 -1303 0
1305 15 17 0
1306 18 -1305 0
1307 -19 -1306 0
1308 20 -1307 0
1309 -21 -1308 0
1310 -23 -1309 0
-1311 1304 0
-1311 -1310 0
1312 15 17 0
1313 18 -1312 0
1314 -19 -1313 0
1315 -20 -1314 0
1316 22 -1315 0
1317 -23 -1316 0
-1318 1311 0
-1318 -1317 0
1319 15 -17 0
1320 -18 -1319 0
1321 19 -1320 0
1322 20 -1321 0
1323 -21 -1322 0
1324 -22 -1323 0
1325 -23 -1324 0
-1326 1318 0
-1326 -1325 0
1327 15 16 0
1328 18 -1327 0
1329 -20 -1328 0
1330 21 -1329 0
1331 22 -1330 0
1332 23 -1331 0
-1333 1326 0
-1333 -1332 0
1334 15 16 0
1335 18 -1334 0
1336 -20 -1335 0
1337 21 -1336 0
1338 -22 -1337 0
1339 -23 -1338 0
-1340 1333 0
-1340 -1339 0
1341 15 16 0
1342 18 -1341 0
1343 19 -1342 0
1344 -21 -1343 0
1345 22 -1344 0
1346 -23 -1345 0
-1347 1340 0
-1347 -1346 0
1348 15 16 0
1349 18 -1348 0
1350 19 -1349 0
1351 20 -1350 0
1352 -21 -1351 0
1353 -23 -1352 0
-1354 1347 0
-1354 -1353 0
1355 15 16 0
1356 18 -1355 0
1357 -19 -1356 0
1358 21 -1357 0
1359 -22 -1358 0
1360 -23 -1359 0
-1361 1354 0
-1361 -1360 0
1362 15 16 0
1363 18 -1362 0
1364 -19 -1363 0
1365 20 -1364 0
1366 21 -1365 0
1367 -23 -1366 0
-1368 1361 0
-1368 -1367 0
1369 15 16 0
1370 18 -1369 0
1371 -19 -1370 0
1372 20 -1371 0
1373 -21 -1372 0
1374 23 -1373 0
-1375 1368 0
-1375 -1374 0
1376 15 16 0
1377 18 -1376 0
1378 -19 -1377 0
1379 -20 -1378 0
1380 22 -1379 0
1381 23 -1380 0
-1382 1375 0
-1382 -1381 0
1383 15 16 0
1384 -18 -1383 0
1385 19 -1384 0
1386 20 -1385 0
1387 21 -1386 0
1388 -22 -1387 0
1389 -23 -1388 0
-1390 1382 0
-1390 -1389 0
1391 15 16 0
1392 17 -1391 0
1393 20 -1392 0
1394 -21 -1393 0
1395 22 -1394 0
1396 -23 -1395 0
-1397 1390 0
-1397 -1396 0
1398 15 16 0
1399 17 -1398 0
1400 19 -1399 0
1401 -20 -1400 0
1402 22 -1401 0
1403 23 -1402 0
-1404 1397 0
-1404 -1403 0
1405 15 16 0
1406 17 -1405 0
1407 19 -1406 0
1408 -20 -1407 0
1409 21 -1408 0
1410 23 -1409 0
-1411 1404 0
-1411 -1410 0
1412 15 16 0
1413 17 -1412 0
1414 -19 -1413 0
1415 22 -1414 0
1416 -23 -1415 0
-1417 1411 0
-1417 -1416 0
1418 15 16 0
1419 17 -1418 0
1420 -19 -1419 0
1421 21 -1420 0
1422 -22 -1421 0
1423 23 -1422 0
-1424 1417 0
-1424 -1423 0
1425 15 16 0
1426 17 -1425 0
1427 18 -1426 0
1428 -22 -1427 0
-1429 1424 0
-1429 -1428 0
1430 15 16 0
1431 17 -1430 0
1432 18 -1431 0
1433 -21 -1432 0
-1434 1429 0
-1434 -1433 0
1435 15 16 0
1436 17 -1435 0
1437 18 -1436 0
1438 -20 -1437 0
-1439 1434 0
-1439 -1438 0
1440 15 16 0
1441 17 -1440 0
1442 18 -1441 0
1443 -19 -1442 0
-1444 1439 0
-1444 -1443 0
1445 15 16 0
1446 -17 -1445 0
1447 -19 -1446 0
1448 21 -1447 0
1449 -22 -1448 0
1450 -23 -1449 0
-1451 1444 0
-1451 -1450 0
1452 15 16 0
1453 -17 -1452 0
1454 -19 -1453 0
1455 20 -1454 0
1456 -21 -1455 0
1457 23 -1456 0
-1458 1451 0
-1458 -1457 0
1459 15 16 0
1460 -17 -1459 0
1461 -19 -1460 0
1462 -20 -1461 0
1463 22 -1462 0
1464 23 -1463 0
-1465 1458 0
-1465 -1464 0
1466 15 16 0
1467 -17 -1466 0
1468 -18 -1467 0
1469 21 -1468 0
1470 -22 -1469 0
1471 -23 -1470 0
-1472 1465 0
-1472 -1471 0
1473 15 16 0
1474 -17 -1473 0
1475 -18 -1474 0
1476 20 -1475 0
1477 -21 -1476 0
1478 22 -1477 0
1479 23 -1478 0
-1480 1472 0
-1480 -1479 0
1481 15 16 0
1482 -17 -1481 0
1483 -18 -1482 0
1484 19 -1483 0
1485 20 -1484 0
1486 -22 -1485 0
1487 -23 -1486 0
-1488 1480 0
-1488 -1487 0
1489 15 16 0
1490 -17 -1489 0
1491 -18 -1490 0
1492 19 -1491 0
1493 -20 -1492 0
1494 22 -1493 0
1495 -23 -1494 0
-1496 1488 0
-1496 -1495 0
1497 15 16 0
1498 -17 -1497 0
1499 -18 -1498 0
1500 -19 -1499 0
1501 22 -1500 0
1502 23 -1501 0
-1503 1496 0
-1503 -1502 0
1504 15 -16 0
1505 19 -1504 0
1506 -20 -1505 0
1507 -21 -1506 0
1508 -22 -1507 0
1509 -23 -1508 0
-1510 1503 0
-1510 -1509 0
1511 15 -16 0
1512 -19 -1511 0
1513 -20 -1512 0
1514 -22 -1513 0
1515 23 -1514 0
-1516 1510 0
-1516 -1515 0
1517 15 -16 0
1518 -19 -1517 0
1519 -20 -1518 0
1520 -21 -1519 0
1521 22 -1520 0
1522 -23 -1521 0
-1523 1516 0
-1523 -1522 0
1524 15 -16 0
1525 18 -1524 0
1526 -20 -1525 0
1527 21 -1526 0
1528 -22 -1527 0
1529 23 -1528 0
-1530 1523 0
-1530 -1529 0
1531 15 -16 0
1532 18 -1531 0
1533 19 -1532 0
1534 20 -1533 0
1535 21 -1534 0
1536 -22 -1535 0
1537 -23 -1536 0
-1538 1530 0
-1538 -1537 0
1539 15 -16 0
1540 18 -1539 0
1541 19 -1540 0
1542 20 -1541 0
1543 -21 -1542 0
1544 -22 -1543 0
1545 23 -1544 0
-1546 1538 0
-1546 -1545 0
1547 15 -16 0
1548 18 -1547 0
1549 19 -1548 0
1550 -20 -1549 0
1551 21 -1550 0
1552 22 -1551 0
1553 -23 -1552 0
-1554 1546 0
-1554 -1553 0
1555 15 -16 0
1556 18 -1555 0
1557 -19 -1556 0
1558 -21 -1557 0
1559 22 -1558 0
1560 -23 -1559 0
-1561 1554 0
-1561 -1560 0
1562 15 -16 0
1563 18 -1562 0
1564 -19 -1563 0
1565 20 -1564 0
1566 21 -1565 0
1567 22 -1566 0
1568 23 -1567 0
-1569 1561 0
-1569 -1568 0
1570 15 -16 0
1571 18 -1570 0
1572 -19 -1571 0
1573 20 -1572 0
1574 -21 -1573 0
1575 -23 -1574 0
-1576 1569 0
-1576 -1575 0
1577 15 -16 0
1578 17 -1577 0
1579 -18 -1578 0
1580 -19 -1579 0
1581 -20 -1580 0
1582 21 -1581 0
1583 23 -1582 0
-1584 1576 0
-1584 -1583 0
1585 15 -16 0
1586 -17 -1585 0
1587 -19 -1586 0
1588 20 -1587 0
1589 -21 -1588 0
1590 -23 -1589 0
-1591 1584 0
-1591 -1590 0
1592 15 -16 0
1593 -17 -1592 0
1594 18 -1593 0
1595 19 -1594 0
1596 20 -1595 0
1597 -21 -1596 0
1598 23 -1597 0
-1599 1591 0
-1599 -1598 0
1600 15 -16 0
1601 -17 -1600 0
1602 18 -1601 0
1603 19 -1602 0
1604 -20 -1603 0
1605 22 -1604 0
1606 -23 -1605 0
-1607 1599 0
-1607 -1606 0
1608 15 -16 0
1609 -17 -1608 0
1610 18 -1609 0
1611 -19 -1610 0
1612 20 -1611 0
1613 -22 -1612 0
1614 -23 -1613 0
-1615 1607 0
-1615 -1614 0
1616 15 -16 0
1617 -17 -1616 0
1618 18 -1617 0
1619 -19 -1618 0
1620 -20 -1619 0
1621 21 -1620 0
1622 23 -1621 0
-1623 1615 0
-1623 -1622 0
1624 15 -16 0
1625 -17 -1624 0
1626 -18 -1625 0
1627 21 -1626 0
1628 -22 -1627 0
1629 23 -1628 0
-1630 1623 0
-1630 -1629 0
1631 15 -16 0
1632 -17 -1631 0
1633 -18 -1632 0
1634 20 -1633 0
1635 -21 -1634 0
1636 -23 -1635 0
-1637 1630 0
-1637 -1636 0
1638 15 -16 0
1639 -17 -1638 0
1640 -18 -1639 0
1641 19 -1640 0
1642 -20 -1641 0
1643 22 -1642 0
1644 23 -1643 0
-1645 1637 0
-1645 -1644 0
1646 15 -16 0
1647 -17 -1646 0
1648 -18 -1647 0
1649 -19 -1648 0
1650 22 -1649 0
1651 -23 -1650 0
-1652 1645 0
-1652 -1651 0
1653 -15 18 0
1654 19 -1653 0
1655 20 -1654 0
1656 21 -1655 0
1657 -22 -1656 0
1658 23 -1657 0
-1659 1652 0
-1659 -1658 0
1660 -15 18 0
1661 19 -1660 0
1662 20 -1661 0
1663 -21 -1662 0
1664 -22 -1663 0
1665 -23 -1664 0
-1666 1659 0
-1666 -1665 0
1667 -15 18 0
1668 19 -1667 0
1669 -20 -1668 0
1670 -21 -1669 0
1671 -22 -1670 0
1672 23 -1671 0
-1673 1666 0
-1673 -1672 0
1674 -15 18 0
1675 -19 -1674 0
1676 20 -1675 0
1677 21 -1676 0
1678 22 -1677 0
1679 -23 -1678 0
-1680 1673 0
-1680 -1679 0
1681 -15 18 0
1682 -19 -1681 0
1683 -20 -1682 0
1684 -21 -1683 0
1685 -22 -1684 0
1686 -23 -1685 0
-1687 1680 0
-1687 -1686 0
1688 -15 17 0
1689 18 -1688 0
1690 -20 -1689 0
1691 21 -1690 0
1692 -22 -1691 0
1693 -23 -1692 0
-1694 1687 0
-1694 -1693 0
1695 -15 17 0
1696 18 -1695 0
1697 -19 -1696 0
1698 20 -1697 0
1699 -21 -1698 0
1700 23 -1699 0
-1701 1694 0
-1701 -1700 0
1702 -15 17 0
1703 18 -1702 0
1704 -19 -1703 0
1705 -20 -1704 0
1706 -22 -1705 0
1707 -23 -1706 0
-1708 1701 0
-1708 -1707 0
1709 -15 17 0
1710 18 -1709 0
1711 -19 -1710 0
1712 -20 -1711 0
1713 -21 -1712 0
1714 22 -1713 0
1715 23 -1714 0
-1716 1708 0
-1716 -1715 0
1717 -15 17 0
1718 -18 -1717 0
1719 20 -1718 0
1720 21 -1719 0
1721 -22 -1720 0
1722 -23 -1721 0
-1723 1716 0
-1723 -1722 0
1724 -15 17 0
1725 -18 -1724 0
1726 19 -1725 0
1727 20 -1726 0
1728 -21 -1727 0
1729 23 -1728 0
-1730 1723 0
-1730 -1729 0
1731 -15 17 0
1732 -18 -1731 0
1733 19 -1732 0
1734 -20 -1733 0
1735 21 -1734 0
1736 22 -1735 0
1737 -23 -1736 0
-1738 1730 0
-1738 -1737 0
1739 -15 17 0
1740 -18 -1739 0
1741 -19 -1740 0
1742 20 -1741 0
1743 21 -1742 0
1744 22 -1743 0
1745 23 -1744 0
-1746 1738 0
-1746 -1745 0
1747 -15 -17 0
1748 18 -1747 0
1749 20 -1748 0
1750 21 -1749 0
1751 -22 -1750 0
1752 23 -1751 0
-1753 1746 0
-1753 -1752 0
1754 -15 -17 0
1755 18 -1754 0
1756 20 -1755 0
1757 -21 -1756 0
1758 -23 -1757 0
-1759 1753 0
-1759 -1758 0
1760 -15 -17 0
1761 18 -1760 0
1762 19 -1761 0
1763 -20 -1762 0
1764 23 -1763 0
-1765 1759 0
-1765 -1764 0
1766 -15 -17 0
1767 18 -1766 0
1768 -19 -1767 0
1769 21 -1768 0
1770 22 -1769 0
1771 -23 -1770 0
-1772 1765 0
-1772 -1771 0
1773 -15 -17 0
1774 18 -1773 0
1775 -19 -1774 0
1776 -21 -1775 0
1777 -22 -1776 0
1778 -23 -1777 0
-1779 1772 0
-1779 -1778 0
1780 -15 -17 0
1781 18 -1780 0
1782 -19 -1781 0
1783 20 -1782 0
1784 22 -1783 0
1785 -23 -1784 0
-1786 1779 0
-1786 -1785 0
1787 -15 -17 0
1788 -18 -1787 0
1789 -20 -1788 0
1790 21 -1789 0
1791 -22 -1790 0
1792 -23 -1791 0
-1793 1786 0
-1793 -1792 0
1794 -15 -17 0
1795 -18 -1794 0
1796 -19 -1795 0
1797 -21 -1796 0
1798 22 -1797 0
1799 23 -1798 0
-1800 1793 0
-1800 -1799 0
1801 -15 -17 0
1802 -18 -1801 0
1803 -19 -1802 0
1804 -20 -1803 0
1805 -22 -1804 0
1806 -23 -1805 0
-1807 1800 0
-1807 -1806 0
1808 -15 16 0
1809 -18 -1808 0
1810 -19 -1809 0
1811 20 -1810 0
1812 -21 -1811 0
1813 -22 -1812 0
1814 -23 -1813 0
-1815 1807 0
-1815 -1814 0
1816 -15 16 0
1817 17 -1816 0
1818 -18 -1817 0
1819 19 -1818 0
1820 -21 -1819 0
1821 22 -1820 0
1822 23 -1821 0
-1823 1815 0
-1823 -1822 0
1824 -15 16 0
1825 17 -1824 0
1826 -18 -1825 0
1827 -19 -1826 0
1828 20 -1827 0
1829 -22 -1828 0
1830 -23 -1829 0
-1831 1823 0
-1831 -1830 0
1832 -15 16 0
1833 -17 -1832 0
1834 20 -1833 0
1835 21 -1834 0
1836 -22 -1835 0
1837 23 -1836 0
-1838 1831 0
-1838 -1837 0
1839 -15 16 0
1840 -17 -1839 0
1841 20 -1840 0
1842 -21 -1841 0
1843 -22 -1842 0
1844 -23 -1843 0
-1845 1838 0
-1845 -1844 0
1846 -15 16 0
1847 -17 -1846 0
1848 -20 -1847 0
1849 -21 -1848 0
1850 22 -1849 0
1851 23 -1850 0
-1852 1845 0
-1852 -1851 0
1853 -15 16 0
1854 -17 -1853 0
1855 19 -1854 0
1856 20 -1855 0
1857 -21 -1856 0
1858 -23 -1857 0
-1859 1852 0
-1859 -1858 0
1860 -15 16 0
1861 -17 -1860 0
1862 19 -1861 0
1863 -20 -1862 0
1864 22 -1863 0
1865 23 -1864 0
-1866 1859 0
-1866 -1865 0
1867 -15 16 0
1868 -17 -1867 0
1869 -19 -1868 0
1870 21 -1869 0
1871 22 -1870 0
1872 -23 -1871 0
-1873 1866 0
-1873 -1872 0
1874 -15 16 0
1875 -17 -1874 0
1876 -19 -1875 0
1877 -20 -1876 0
1878 21 -1877 0
1879 -23 -1878 0
-1880 1873 0
-1880 -1879 0
1881 -15 -16 0
1882 18 -1881 0
1883 20 -1882 0
1884 21 -1883 0
1885 -22 -1884 0
1886 23 -1885 0
-1887 1880 0
-1887 -1886 0
1888 -15 -16 0
1889 18 -1888 0
1890 19 -1889 0
1891 20 -1890 0
1892 -21 -1891 0
1893 -23 -1892 0
-1894 1887 0
-1894 -1893 0
1895 -15 -16 0
1896 18 -1895 0
1897 19 -1896 0
1898 -20 -1897 0
1899 21 -1898 0
1900 22 -1899 0
1901 23 -1900 0
-1902 1894 0
-1902 -1901 0
1903 -15 -16 0
1904 -18 -1903 0
1905 21 -1904 0
1906 -22 -1905 0
1907 -23 -1906 0
-1908 1902 0
-1908 -1907 0
1909 -15 -16 0
1910 -18 -1909 0
1911 20 -1910 0
1912 -21 -1911 0
1913 23 -1912 0
-1914 1908 0
-1914 -1913 0
1915 -15 -16 0
1916 -18 -1915 0
1917 19 -1916 0
1918 -20 -1917 0
1919 -23 -1918 0
-1920 1914 0
-1920 -1919 0
1921 -15 -16 0
1922 -18 -1921 0
1923 -19 -1922 0
1924 20 -1923 0
1925 22 -1924 0
1926 23 -1925 0
-1927 1920 0
-1927 -1926 0
1928 -15 -16 0
1929 17 -1928 0
1930 -19 -1929 0
1931 20 -1930 0
1932 -21 -1931 0
1933 23 -1932 0
-1934 1927 0
-1934 -1933 0
1935 -15 -16 0
1936 17 -1935 0
1937 18 -1936 0
1938 19 -1937 0
1939 -21 -1938 0
1940 22 -1939 0
1941 -23 -1940 0
-1942 1934 0
-1942 -1941 0
1943 -15 -16 0
1944 17 -1943 0
1945 18 -1944 0
1946 -19 -1945 0
1947 20 -1946 0
1948 -22 -1947 0
1949 23 -1948 0
-1950 1942 0
-1950 -1949 0
1951 -15 -16 0
1952 17 -1951 0
1953 18 -1952 0
1954 -19 -1953 0
1955 -20 -1954 0
1956 21 -1955 0
1957 -23 -1956 0
-1958 1950 0
-1958 -1957 0
1959 -15 -16 0
1960 -17 -1959 0
1961 18 -1960 0
1962 21 -1961 0
1963 -22 -1962 0
1964 23 -1963 0
-1965 1958 0
-1965 -1964 0
1966 -15 -16 0
1967 -17 -1966 0
1968 18 -1967 0
1969 -19 -1968 0
1970 22 -1969 0
1971 -23 -1970 0
-1972 1965 0
-1972 -1971 0
1973 -15 -16 0
1974 -17 -1973 0
1975 -18 -1974 0
1976 -19 -1975 0
1977 22 -1976 0
1978 23 -1977 0
-1979 1972 0
-1979 -1978 0
-1980 1 0
-1980 1979 0
-1981 1 0
-1981 1 0
-1982 1005 0
-1982 1981 0
-1983 1 0
-1983 1982 0
-1984 1980 0
-1984 1983 0
-1985 1023 0
-1985 1984 0
-1986 -1 0
-1986 1985 0
1986 0
