p cnf 1984 3006
1 0
-24 -2 0
-24 -3 0
24 2 3 0
-25 -4 0
-25 -5 0
25 4 5 0
-26 24 0
-26 25 0
26 -24 -25 0
-27 -9 8 0
-27 9 -8 0
27 -9 -8 0
27 9 8 0
-28 -26 27 0
-28 26 -2 0
28 -26 -27 0
28 26 2 0
-29 -26 -6 0
-29 26 -3 0
29 -26 6 0
29 26 3 0
-30 -26 -7 0
-30 26 -4 0
30 -26 7 0
30 26 4 0
-31 -26 -8 0
-31 26 -5 0
31 -26 8 0
31 26 5 0
-32 -26 -10 0
-32 26 -2 0
32 -26 10 0
32 26 2 0
-33 -26 -11 0
-33 26 -3 0
33 -26 11 0
33 26 3 0
-34 -26 -12 0
-34 26 -4 0
34 -26 12 0
34 26 4 0
-35 -26 -13 0
-35 26 -5 0
35 -26 13 0
35 26 5 0
-36 -10 0
-36 -11 0
36 10 11 0
-37 -12 0
-37 -13 0
37 12 13 0
-38 36 0
-38 37 0
38 -36 -37 0
-39 27 -10 0
-39 -27 10 0
39 27 10 0
39 -27 -10 0
-40 -11 -6 0
-40 11 6 0
40 -11 6 0
40 11 -6 0
-41 -39 0
-41 -40 0
41 39 40 0
-42 -12 -7 0
-42 12 7 0
42 -12 7 0
42 12 -7 0
-43 -13 -8 0
-43 13 8 0
43 -13 8 0
43 13 -8 0
-44 -42 0
-44 -43 0
44 42 43 0
-45 41 0
-45 44 0
45 -41 -44 0
-46 -38 0
-46 45 0
46 38 -45 0
-47 26 0
-47 -46 0
47 -26 46 0
-48 -14 0
-48 47 0
48 14 -47 0
49 8 -9 0
50 10 -49 0
51 11 -50 0
52 12 -51 0
53 -13 -52 0
54 8 -9 0
55 10 -54 0
56 11 -55 0
57 -12 -56 0
58 -13 -57 0
-59 14 -58 0
-59 -14 -53 0
60 8 -9 0
61 10 -60 0
62 -11 -61 0
63 -12 -62 0
64 -13 -63 0
65 -14 -64 0
-66 59 0
-66 -65 0
67 8 -9 0
68 -10 -67 0
69 -11 -68 0
70 -12 -69 0
71 13 -70 0
72 -14 -71 0
-73 66 0
-73 -72 0
74 8 -9 0
75 -10 -74 0
76 -11 -75 0
77 -12 -76 0
78 -13 -77 0
79 14 -78 0
-80 73 0
-80 -79 0
81 7 9 0
82 10 -81 0
83 11 -82 0
84 12 -83 0
85 -13 -84 0
86 14 -85 0
-87 80 0
-87 -86 0
88 7 9 0
89 10 -88 0
90 11 -89 0
91 -12 -90 0
92 -13 -91 0
93 -14 -92 0
-94 87 0
-94 -93 0
95 7 9 0
96 -10 -95 0
97 -11 -96 0
98 -13 -97 0
99 -14 -98 0
-100 94 0
-100 -99 0
101 7 9 0
102 -10 -101 0
103 -11 -102 0
104 -12 -103 0
105 13 -104 0
106 14 -105 0
-107 100 0
-107 -106 0
108 7 8 0
109 9 -108 0
110 11 -109 0
111 -12 -110 0
112 13 -111 0
113 14 -112 0
-114 107 0
-114 -113 0
115 7 8 0
116 9 -115 0
117 10 -116 0
118 -11 -117 0
119 13 -118 0
120 -14 -119 0
-121 114 0
-121 -120 0
122 7 8 0
123 9 -122 0
124 10 -123 0
125 -11 -124 0
126 12 -125 0
127 -14 -126 0
-128 121 0
-128 -127 0
129 7 8 0
130 9 -129 0
131 -10 -130 0
132 12 -131 0
133 -13 -132 0
134 -14 -133 0
-135 128 0
-135 -134 0
136 7 8 0
137 9 -136 0
138 -10 -137 0
139 11 -138 0
140 12 -139 0
141 -14 -140 0
-142 135 0
-142 -141 0
143 7 8 0
144 9 -143 0
145 -10 -144 0
146 11 -145 0
147 -12 -146 0
148 14 -147 0
-149 142 0
-149 -148 0
150 7 8 0
151 9 -150 0
152 -10 -151 0
153 -11 -152 0
154 13 -153 0
155 14 -154 0
-156 149 0
-156 -155 0
157 7 8 0
158 -9 -157 0
159 -11 -158 0
160 12 -159 0
161 -13 -160 0
162 14 -161 0
-163 156 0
-163 -162 0
164 7 8 0
165 -9 -164 0
166 -10 -165 0
167 11 -166 0
168 -12 -167 0
169 -14 -168 0
-170 163 0
-170 -169 0
171 7 8 0
172 -9 -171 0
173 -10 -172 0
174 -11 -173 0
175 13 -174 0
176 -14 -175 0
-177 170 0
-177 -176 0
178 7 8 0
179 -9 -178 0
180 -10 -179 0
181 -11 -180 0
182 -13 -181 0
183 14 -182 0
-184 177 0
-184 -183 0
185 7 -8 0
186 10 -185 0
187 11 -186 0
188 -12 -187 0
189 -13 -188 0
190 -14 -189 0
-191 184 0
-191 -190 0
192 7 -8 0
193 10 -192 0
194 -11 -193 0
195 -12 -194 0
196 -13 -195 0
197 14 -196 0
-198 191 0
-198 -197 0
199 7 -8 0
200 -10 -199 0
201 -11 -200 0
202 -13 -201 0
203 -14 -202 0
-204 198 0
-204 -203 0
205 7 -8 0
206 -10 -205 0
207 -11 -206 0
208 -12 -207 0
209 13 -208 0
210 14 -209 0
-211 204 0
-211 -210 0
212 7 -8 0
213 -9 -212 0
214 -11 -213 0
215 12 -214 0
216 -13 -215 0
217 -14 -216 0
-218 211 0
-218 -217 0
219 7 -8 0
220 -9 -219 0
221 -10 -220 0
222 -12 -221 0
223 13 -222 0
224 14 -223 0
-225 218 0
-225 -224 0
226 -7 -9 0
227 10 -226 0
228 -11 -227 0
229 -12 -228 0
230 -13 -229 0
231 -14 -230 0
-232 225 0
-232 -231 0
233 -7 8 0
234 -9 -233 0
235 11 -234 0
236 12 -235 0
237 -13 -236 0
238 -14 -237 0
-239 232 0
-239 -238 0
240 -7 8 0
241 -9 -240 0
242 10 -241 0
243 11 -242 0
244 -12 -243 0
245 14 -244 0
-246 239 0
-246 -245 0
247 -7 8 0
248 -9 -247 0
249 10 -248 0
250 -11 -249 0
251 -14 -250 0
-252 246 0
-252 -251 0
253 -7 8 0
254 -9 -253 0
255 -10 -254 0
256 12 -255 0
257 13 -256 0
258 14 -257 0
-259 252 0
-259 -258 0
260 -7 8 0
261 -9 -260 0
262 -10 -261 0
263 -12 -262 0
264 -13 -263 0
265 14 -264 0
-266 259 0
-266 -265 0
267 -7 -8 0
268 9 -267 0
269 -10 -268 0
270 11 -269 0
271 -12 -270 0
272 -14 -271 0
-273 266 0
-273 -272 0
274 -7 -8 0
275 9 -274 0
276 -10 -275 0
277 -11 -276 0
278 -12 -277 0
279 13 -278 0
280 -14 -279 0
-281 273 0
-281 -280 0
282 6 8 0
283 10 -282 0
284 11 -283 0
285 -12 -284 0
286 -13 -285 0
287 14 -286 0
-288 281 0
-288 -287 0
289 6 8 0
290 -10 -289 0
291 -12 -290 0
292 13 -291 0
293 -14 -292 0
-294 288 0
-294 -293 0
295 6 8 0
296 -10 -295 0
297 -11 -296 0
298 -13 -297 0
299 14 -298 0
-300 294 0
-300 -299 0
301 6 8 0
302 9 -301 0
303 11 -302 0
304 -12 -303 0
305 13 -304 0
306 -14 -305 0
-307 300 0
-307 -306 0
308 6 8 0
309 9 -308 0
310 -11 -309 0
311 12 -310 0
312 -13 -311 0
313 14 -312 0
-314 307 0
-314 -313 0
315 6 8 0
316 9 -315 0
317 10 -316 0
318 -11 -317 0
319 -12 -318 0
320 13 -319 0
321 14 -320 0
-322 314 0
-322 -321 0
323 6 8 0
324 9 -323 0
325 -10 -324 0
326 12 -325 0
327 -13 -326 0
328 14 -327 0
-329 322 0
-329 -328 0
330 6 8 0
331 9 -330 0
332 -10 -331 0
333 11 -332 0
334 -12 -333 0
335 -14 -334 0
-336 329 0
-336 -335 0
337 6 8 0
338 9 -337 0
339 -10 -338 0
340 -11 -339 0
341 13 -340 0
342 -14 -341 0
-343 336 0
-343 -342 0
344 6 -8 0
345 -9 -344 0
346 10 -345 0
347 11 -346 0
348 -12 -347 0
349 -13 -348 0
350 -14 -349 0
-351 343 0
-351 -350 0
352 6 7 0
353 9 -352 0
354 -11 -353 0
355 12 -354 0
356 13 -355 0
357 14 -356 0
-358 351 0
-358 -357 0
359 6 7 0
360 9 -359 0
361 -11 -360 0
362 12 -361 0
363 -13 -362 0
364 -14 -363 0
-365 358 0
-365 -364 0
366 6 7 0
367 9 -366 0
368 10 -367 0
369 -12 -368 0
370 13 -369 0
371 -14 -370 0
-372 365 0
-372 -371 0
373 6 7 0
374 9 -373 0
375 10 -374 0
376 11 -375 0
377 -12 -376 0
378 -14 -377 0
-379 372 0
-379 -378 0
380 6 7 0
381 9 -380 0
382 -10 -381 0
383 12 -382 0
384 -13 -383 0
385 -14 -384 0
-386 379 0
-386 -385 0
387 6 7 0
388 9 -387 0
389 -10 -388 0
390 11 -389 0
391 12 -390 0
392 -14 -391 0
-393 386 0
-393 -392 0
394 6 7 0
395 9 -394 0
396 -10 -395 0
397 11 -396 0
398 -12 -397 0
399 14 -398 0
-400 393 0
-400 -399 0
401 6 7 0
402 9 -401 0
403 -10 -402 0
404 -11 -403 0
405 13 -404 0
406 14 -405 0
-407 400 0
-407 -406 0
408 6 7 0
409 -9 -408 0
410 10 -409 0
411 11 -410 0
412 12 -411 0
413 -13 -412 0
414 -14 -413 0
-415 407 0
-415 -414 0
416 6 7 0
417 8 -416 0
418 11 -417 0
419 -12 -418 0
420 13 -419 0
421 -14 -420 0
-422 415 0
-422 -421 0
423 6 7 0
424 8 -423 0
425 10 -424 0
426 -11 -425 0
427 13 -426 0
428 14 -427 0
-429 422 0
-429 -428 0
430 6 7 0
431 8 -430 0
432 10 -431 0
433 -11 -432 0
434 12 -433 0
435 14 -434 0
-436 429 0
-436 -435 0
437 6 7 0
438 8 -437 0
439 -10 -438 0
440 13 -439 0
441 -14 -440 0
-442 436 0
-442 -441 0
443 6 7 0
444 8 -443 0
445 -10 -444 0
446 12 -445 0
447 -13 -446 0
448 14 -447 0
-449 442 0
-449 -448 0
450 6 7 0
451 8 -450 0
452 9 -451 0
453 -13 -452 0
-454 449 0
-454 -453 0
455 6 7 0
456 8 -455 0
457 9 -456 0
458 -12 -457 0
-459 454 0
-459 -458 0
460 6 7 0
461 8 -460 0
462 9 -461 0
463 -11 -462 0
-464 459 0
-464 -463 0
465 6 7 0
466 8 -465 0
467 9 -466 0
468 -10 -467 0
-469 464 0
-469 -468 0
470 6 7 0
471 -8 -470 0
472 -10 -471 0
473 12 -472 0
474 -13 -473 0
475 -14 -474 0
-476 469 0
-476 -475 0
477 6 7 0
478 -8 -477 0
479 -10 -478 0
480 11 -479 0
481 -12 -480 0
482 14 -481 0
-483 476 0
-483 -482 0
484 6 7 0
485 -8 -484 0
486 -10 -485 0
487 -11 -486 0
488 13 -487 0
489 14 -488 0
-490 483 0
-490 -489 0
491 6 7 0
492 -8 -491 0
493 -9 -492 0
494 12 -493 0
495 -13 -494 0
496 -14 -495 0
-497 490 0
-497 -496 0
498 6 7 0
499 -8 -498 0
500 -9 -499 0
501 11 -500 0
502 -12 -501 0
503 13 -502 0
504 14 -503 0
-505 497 0
-505 -504 0
506 6 7 0
507 -8 -506 0
508 -9 -507 0
509 10 -508 0
510 11 -509 0
511 -13 -510 0
512 -14 -511 0
-513 505 0
-513 -512 0
514 6 7 0
515 -8 -514 0
516 -9 -515 0
517 10 -516 0
518 -11 -517 0
519 13 -518 0
520 -14 -519 0
-521 513 0
-521 -520 0
522 6 7 0
523 -8 -522 0
524 -9 -523 0
525 -10 -524 0
526 13 -525 0
527 14 -526 0
-528 521 0
-528 -527 0
529 6 -7 0
530 10 -529 0
531 -11 -530 0
532 -12 -531 0
533 -13 -532 0
534 -14 -533 0
-535 528 0
-535 -534 0
536 6 -7 0
537 -10 -536 0
538 -11 -537 0
539 -13 -538 0
540 14 -539 0
-541 535 0
-541 -540 0
542 6 -7 0
543 -10 -542 0
544 -11 -543 0
545 -12 -544 0
546 13 -545 0
547 -14 -546 0
-548 541 0
-548 -547 0
549 6 -7 0
550 9 -549 0
551 -11 -550 0
552 12 -551 0
553 -13 -552 0
554 14 -553 0
-555 548 0
-555 -554 0
556 6 -7 0
557 9 -556 0
558 10 -557 0
559 11 -558 0
560 12 -559 0
561 -13 -560 0
562 -14 -561 0
-563 555 0
-563 -562 0
564 6 -7 0
565 9 -564 0
566 10 -565 0
567 11 -566 0
568 -12 -567 0
569 -13 -568 0
570 14 -569 0
-571 563 0
-571 -570 0
572 6 -7 0
573 9 -572 0
574 10 -573 0
575 -11 -574 0
576 12 -575 0
577 13 -576 0
578 -14 -577 0
-579 571 0
-579 -578 0
580 6 -7 0
581 9 -580 0
582 -10 -581 0
583 -12 -582 0
584 13 -583 0
585 -14 -584 0
-586 579 0
-586 -585 0
587 6 -7 0
588 9 -587 0
589 -10 -588 0
590 11 -589 0
591 12 -590 0
592 13 -591 0
593 14 -592 0
-594 586 0
-594 -593 0
595 6 -7 0
596 9 -595 0
597 -10 -596 0
598 11 -597 0
599 -12 -598 0
600 -14 -599 0
-601 594 0
-601 -600 0
602 6 -7 0
603 8 -602 0
604 -9 -603 0
605 -10 -604 0
606 -11 -605 0
607 12 -606 0
608 14 -607 0
-609 601 0
-609 -608 0
610 6 -7 0
611 -8 -610 0
612 -10 -611 0
613 11 -612 0
614 -12 -613 0
615 -14 -614 0
-616 609 0
-616 -615 0
617 6 -7 0
618 -8 -617 0
619 9 -618 0
620 10 -619 0
621 11 -620 0
622 -12 -621 0
623 14 -622 0
-624 616 0
-624 -623 0
625 6 -7 0
626 -8 -625 0
627 9 -626 0
628 10 -627 0
629 -11 -628 0
630 13 -629 0
631 -14 -630 0
-632 624 0
-632 -631 0
633 6 -7 0
634 -8 -633 0
635 9 -634 0
636 -10 -635 0
637 11 -636 0
638 -13 -637 0
639 -14 -638 0
-640 632 0
-640 -639 0
641 6 -7 0
642 -8 -641 0
643 9 -642 0
644 -10 -643 0
645 -11 -644 0
646 12 -645 0
647 14 -646 0
-648 640 0
-648 -647 0
649 6 -7 0
650 -8 -649 0
651 -9 -650 0
652 12 -651 0
653 -13 -652 0
654 14 -653 0
-655 648 0
-655 -654 0
656 6 -7 0
657 -8 -656 0
658 -9 -657 0
659 11 -658 0
660 -12 -659 0
661 -14 -660 0
-662 655 0
-662 -661 0
663 6 -7 0
664 -8 -663 0
665 -9 -664 0
666 10 -665 0
667 -11 -666 0
668 13 -667 0
669 14 -668 0
-670 662 0
-670 -669 0
671 6 -7 0
672 -8 -671 0
673 -9 -672 0
674 -10 -673 0
675 13 -674 0
676 -14 -675 0
-677 670 0
-677 -676 0
678 -6 9 0
679 10 -678 0
680 11 -679 0
681 12 -680 0
682 -13 -681 0
683 14 -682 0
-684 677 0
-684 -683 0
685 -6 9 0
686 10 -685 0
687 11 -686 0
688 -12 -687 0
689 -13 -688 0
690 -14 -689 0
-691 684 0
-691 -690 0
692 -6 9 0
693 10 -692 0
694 -11 -693 0
695 -12 -694 0
696 -13 -695 0
697 14 -696 0
-698 691 0
-698 -697 0
699 -6 9 0
700 -10 -699 0
701 11 -700 0
702 12 -701 0
703 13 -702 0
704 -14 -703 0
-705 698 0
-705 -704 0
706 -6 9 0
707 -10 -706 0
708 -11 -707 0
709 -12 -708 0
710 -13 -709 0
711 -14 -710 0
-712 705 0
-712 -711 0
713 -6 8 0
714 9 -713 0
715 -11 -714 0
716 12 -715 0
717 -13 -716 0
718 -14 -717 0
-719 712 0
-719 -718 0
720 -6 8 0
721 9 -720 0
722 -10 -721 0
723 11 -722 0
724 -12 -723 0
725 14 -724 0
-726 719 0
-726 -725 0
727 -6 8 0
728 9 -727 0
729 -10 -728 0
730 -11 -729 0
731 -13 -730 0
732 -14 -731 0
-733 726 0
-733 -732 0
734 -6 8 0
735 9 -734 0
736 -10 -735 0
737 -11 -736 0
738 -12 -737 0
739 13 -738 0
740 14 -739 0
-741 733 0
-741 -740 0
742 -6 8 0
743 -9 -742 0
744 11 -743 0
745 12 -744 0
746 -13 -745 0
747 -14 -746 0
-748 741 0
-748 -747 0
749 -6 8 0
750 -9 -749 0
751 10 -750 0
752 11 -751 0
753 -12 -752 0
754 14 -753 0
-755 748 0
-755 -754 0
756 -6 8 0
757 -9 -756 0
758 10 -757 0
759 -11 -758 0
760 12 -759 0
761 13 -760 0
762 -14 -761 0
-763 755 0
-763 -762 0
764 -6 8 0
765 -9 -764 0
766 -10 -765 0
767 11 -766 0
768 12 -767 0
769 13 -768 0
770 14 -769 0
-771 763 0
-771 -770 0
772 -6 -8 0
773 9 -772 0
774 11 -773 0
775 12 -774 0
776 -13 -775 0
777 14 -776 0
-778 771 0
-778 -777 0
779 -6 -8 0
780 9 -779 0
781 11 -780 0
782 -12 -781 0
783 -14 -782 0
-784 778 0
-784 -783 0
785 -6 -8 0
786 9 -785 0
787 10 -786 0
788 -11 -787 0
789 14 -788 0
-790 784 0
-790 -789 0
791 -6 -8 0
792 9 -791 0
793 -10 -792 0
794 12 -793 0
795 13 -794 0
796 -14 -795 0
-797 790 0
-797 -796 0
798 -6 -8 0
799 9 -798 0
800 -10 -799 0
801 -12 -800 0
802 -13 -801 0
803 -14 -802 0
-804 797 0
-804 -803 0
805 -6 -8 0
806 9 -805 0
807 -10 -806 0
808 11 -807 0
809 13 -808 0
810 -14 -809 0
-811 804 0
-811 -810 0
812 -6 -8 0
813 -9 -812 0
814 -11 -813 0
815 12 -814 0
816 -13 -815 0
817 -14 -816 0
-818 811 0
-818 -817 0
819 -6 -8 0
820 -9 -819 0
821 -10 -820 0
822 -12 -821 0
823 13 -822 0
824 14 -823 0
-825 818 0
-825 -824 0
826 -6 -8 0
827 -9 -826 0
828 -10 -827 0
829 -11 -828 0
830 -13 -829 0
831 -14 -830 0
-832 825 0
-832 -831 0
833 -6 7 0
834 -9 -833 0
835 -10 -834 0
836 11 -835 0
837 -12 -836 0
838 -13 -837 0
839 -14 -838 0
-840 832 0
-840 -839 0
841 -6 7 0
842 8 -841 0
843 -9 -842 0
844 10 -843 0
845 -12 -844 0
846 13 -845 0
847 14 -846 0
-848 840 0
-848 -847 0
849 -6 7 0
850 8 -849 0
851 -9 -850 0
852 -10 -851 0
853 11 -852 0
854 -13 -853 0
855 -14 -854 0
-856 848 0
-856 -855 0
857 -6 7 0
858 -8 -857 0
859 11 -858 0
860 12 -859 0
861 -13 -860 0
862 14 -861 0
-863 856 0
-863 -862 0
864 -6 7 0
865 -8 -864 0
866 11 -865 0
867 -12 -866 0
868 -13 -867 0
869 -14 -868 0
-870 863 0
-870 -869 0
871 -6 7 0
872 -8 -871 0
873 -11 -872 0
874 -12 -873 0
875 13 -874 0
876 14 -875 0
-877 870 0
-877 -876 0
878 -6 7 0
879 -8 -878 0
880 10 -879 0
881 11 -880 0
882 -12 -881 0
883 -14 -882 0
-884 877 0
-884 -883 0
885 -6 7 0
886 -8 -885 0
887 10 -886 0
888 -11 -887 0
889 13 -888 0
890 14 -889 0
-891 884 0
-891 -890 0
892 -6 7 0
893 -8 -892 0
894 -10 -893 0
895 12 -894 0
896 13 -895 0
897 -14 -896 0
-898 891 0
-898 -897 0
899 -6 7 0
900 -8 -899 0
901 -10 -900 0
902 -11 -901 0
903 12 -902 0
904 -14 -903 0
-905 898 0
-905 -904 0
906 -6 -7 0
907 9 -906 0
908 11 -907 0
909 12 -908 0
910 -13 -909 0
911 14 -910 0
-912 905 0
-912 -911 0
913 -6 -7 0
914 9 -913 0
915 10 -914 0
916 11 -915 0
917 -12 -916 0
918 -14 -917 0
-919 912 0
-919 -918 0
920 -6 -7 0
921 9 -920 0
922 10 -921 0
923 -11 -922 0
924 12 -923 0
925 13 -924 0
926 14 -925 0
-927 919 0
-927 -926 0
928 -6 -7 0
929 -9 -928 0
930 12 -929 0
931 -13 -930 0
932 -14 -931 0
-933 927 0
-933 -932 0
934 -6 -7 0
935 -9 -934 0
936 11 -935 0
937 -12 -936 0
938 14 -937 0
-939 933 0
-939 -938 0
940 -6 -7 0
941 -9 -940 0
942 10 -941 0
943 -11 -942 0
944 -14 -943 0
-945 939 0
-945 -944 0
946 -6 -7 0
947 -9 -946 0
948 -10 -947 0
949 11 -948 0
950 13 -949 0
951 14 -950 0
-952 945 0
-952 -951 0
953 -6 -7 0
954 8 -953 0
955 -10 -954 0
956 11 -955 0
957 -12 -956 0
958 14 -957 0
-959 952 0
-959 -958 0
960 -6 -7 0
961 8 -960 0
962 9 -961 0
963 10 -962 0
964 -12 -963 0
965 13 -964 0
966 -14 -965 0
-967 959 0
-967 -966 0
968 -6 -7 0
969 8 -968 0
970 9 -969 0
971 -10 -970 0
972 11 -971 0
973 -13 -972 0
974 14 -973 0
-975 967 0
-975 -974 0
976 -6 -7 0
977 8 -976 0
978 9 -977 0
979 -10 -978 0
980 -11 -979 0
981 12 -980 0
982 -14 -981 0
-983 975 0
-983 -982 0
984 -6 -7 0
985 -8 -984 0
986 9 -985 0
987 12 -986 0
988 -13 -987 0
989 14 -988 0
-990 983 0
-990 -989 0
991 -6 -7 0
992 -8 -991 0
993 9 -992 0
994 -10 -993 0
995 13 -994 0
996 -14 -995 0
-997 990 0
-997 -996 0
998 -6 -7 0
999 -8 -998 0
1000 -9 -999 0
1001 -10 -1000 0
1002 13 -1001 0
1003 14 -1002 0
-1004 997 0
-1004 -1003 0
-1005 1 0
-1005 1004 0
-1006 -28 -15 0
-1006 28 15 0
-1007 1 0
-1007 1006 0
-1008 -29 -16 0
-1008 29 16 0
-1009 1007 0
-1009 1008 0
-1010 -30 -17 0
-1010 30 17 0
-1011 1009 0
-1011 1010 0
-1012 -31 -18 0
-1012 31 18 0
-1013 1011 0
-1013 1012 0
-1014 -32 -19 0
-1014 32 19 0
-1015 1013 0
-1015 1014 0
-1016 -33 -20 0
-1016 33 20 0
-1017 1015 0
-1017 1016 0
-1018 -34 -21 0
-1018 34 21 0
-1019 1017 0
-1019 1018 0
-1020 -35 -22 0
-1020 35 22 0
-1021 1019 0
-1021 1020 0
-1022 48 -23 0
-1022 -48 23 0
-1023 1021 0
-1023 1022 0
-1024 -17 0
-1024 18 0
-1025 -19 0
-1025 1024 0
-1026 -20 0
-1026 1025 0
-1027 -21 0
-1027 1026 0
-1028 22 0
-1028 1027 0
-1029 -17 0
-1029 18 0
-1030 -19 0
-1030 1029 0
-1031 -20 0
-1031 1030 0
-1032 21 0
-1032 1031 0
-1033 22 0
-1033 1032 0
1034 23 1033 0
1034 -23 1028 0
-1035 -17 0
-1035 18 0
-1036 -19 0
-1036 1035 0
-1037 20 0
-1037 1036 0
-1038 21 0
-1038 1037 0
-1039 22 0
-1039 1038 0
-1040 23 0
-1040 1039 0
1041 -1034 1040 0
-1042 -17 0
-1042 18 0
-1043 19 0
-1043 1042 0
-1044 20 0
-1044 1043 0
-1045 21 0
-1045 1044 0
-1046 -22 0
-1046 1045 0
-1047 23 0
-1047 1046 0
1048 -1041 1047 0
-1049 -17 0
-1049 18 0
-1050 19 0
-1050 1049 0
-1051 20 0
-1051 1050 0
-1052 21 0
-1052 1051 0
-1053 22 0
-1053 1052 0
-1054 -23 0
-1054 1053 0
1055 -1048 1054 0
-1056 -16 0
-1056 -18 0
-1057 -19 0
-1057 1056 0
-1058 -20 0
-1058 1057 0
-1059 -21 0
-1059 1058 0
-1060 22 0
-1060 1059 0
-1061 -23 0
-1061 1060 0
1062 -1055 1061 0
-1063 -16 0
-1063 -18 0
-1064 -19 0
-1064 1063 0
-1065 -20 0
-1065 1064 0
-1066 21 0
-1066 1065 0
-1067 22 0
-1067 1066 0
-1068 23 0
-1068 1067 0
1069 -1062 1068 0
-1070 -16 0
-1070 -18 0
-1071 19 0
-1071 1070 0
-1072 20 0
-1072 1071 0
-1073 22 0
-1073 1072 0
-1074 23 0
-1074 1073 0
1075 -1069 1074 0
-1076 -16 0
-1076 -18 0
-1077 19 0
-1077 1076 0
-1078 20 0
-1078 1077 0
-1079 21 0
-1079 1078 0
-1080 -22 0
-1080 1079 0
-1081 -23 0
-1081 1080 0
1082 -1075 1081 0
-1083 -16 0
-1083 -17 0
-1084 -18 0
-1084 1083 0
-1085 -20 0
-1085 1084 0
-1086 21 0
-1086 1085 0
-1087 -22 0
-1087 1086 0
-1088 -23 0
-1088 1087 0
1089 -1082 1088 0
-1090 -16 0
-1090 -17 0
-1091 -18 0
-1091 1090 0
-1092 -19 0
-1092 1091 0
-1093 20 0
-1093 1092 0
-1094 -22 0
-1094 1093 0
-1095 23 0
-1095 1094 0
1096 -1089 1095 0
-1097 -16 0
-1097 -17 0
-1098 -18 0
-1098 1097 0
-1099 -19 0
-1099 1098 0
-1100 20 0
-1100 1099 0
-1101 -21 0
-1101 1100 0
-1102 23 0
-1102 1101 0
1103 -1096 1102 0
-1104 -16 0
-1104 -17 0
-1105 -18 0
-1105 1104 0
-1106 19 0
-1106 1105 0
-1107 -21 0
-1107 1106 0
-1108 22 0
-1108 1107 0
-1109 23 0
-1109 1108 0
1110 -1103 1109 0
-1111 -16 0
-1111 -17 0
-1112 -18 0
-1112 1111 0
-1113 19 0
-1113 1112 0
-1114 -20 0
-1114 1113 0
-1115 -21 0
-1115 1114 0
-1116 23 0
-1116 1115 0
1117 -1110 1116 0
-1118 -16 0
-1118 -17 0
-1119 -18 0
-1119 1118 0
-1120 19 0
-1120 1119 0
-1121 -20 0
-1121 1120 0
-1122 21 0
-1122 1121 0
-1123 -23 0
-1123 1122 0
1124 -1117 1123 0
-1125 -16 0
-1125 -17 0
-1126 -18 0
-1126 1125 0
-1127 19 0
-1127 1126 0
-1128 20 0
-1128 1127 0
-1129 -22 0
-1129 1128 0
-1130 -23 0
-1130 1129 0
1131 -1124 1130 0
-1132 -16 0
-1132 -17 0
-1133 18 0
-1133 1132 0
-1134 20 0
-1134 1133 0
-1135 -21 0
-1135 1134 0
-1136 22 0
-1136 1135 0
-1137 -23 0
-1137 1136 0
1138 -1131 1137 0
-1139 -16 0
-1139 -17 0
-1140 18 0
-1140 1139 0
-1141 19 0
-1141 1140 0
-1142 -20 0
-1142 1141 0
-1143 21 0
-1143 1142 0
-1144 23 0
-1144 1143 0
1145 -1138 1144 0
-1146 -16 0
-1146 -17 0
-1147 18 0
-1147 1146 0
-1148 19 0
-1148 1147 0
-1149 20 0
-1149 1148 0
-1150 -22 0
-1150 1149 0
-1151 23 0
-1151 1150 0
1152 -1145 1151 0
-1153 -16 0
-1153 -17 0
-1154 18 0
-1154 1153 0
-1155 19 0
-1155 1154 0
-1156 20 0
-1156 1155 0
-1157 22 0
-1157 1156 0
-1158 -23 0
-1158 1157 0
1159 -1152 1158 0
-1160 -16 0
-1160 17 0
-1161 -19 0
-1161 1160 0
-1162 -20 0
-1162 1161 0
-1163 21 0
-1163 1162 0
-1164 22 0
-1164 1163 0
-1165 23 0
-1165 1164 0
1166 -1159 1165 0
-1167 -16 0
-1167 17 0
-1168 -19 0
-1168 1167 0
-1169 20 0
-1169 1168 0
-1170 21 0
-1170 1169 0
-1171 22 0
-1171 1170 0
-1172 -23 0
-1172 1171 0
1173 -1166 1172 0
-1174 -16 0
-1174 17 0
-1175 19 0
-1175 1174 0
-1176 20 0
-1176 1175 0
-1177 22 0
-1177 1176 0
-1178 23 0
-1178 1177 0
1179 -1173 1178 0
-1180 -16 0
-1180 17 0
-1181 19 0
-1181 1180 0
-1182 20 0
-1182 1181 0
-1183 21 0
-1183 1182 0
-1184 -22 0
-1184 1183 0
-1185 -23 0
-1185 1184 0
1186 -1179 1185 0
-1187 -16 0
-1187 17 0
-1188 18 0
-1188 1187 0
-1189 20 0
-1189 1188 0
-1190 -21 0
-1190 1189 0
-1191 22 0
-1191 1190 0
-1192 23 0
-1192 1191 0
1193 -1186 1192 0
-1194 -16 0
-1194 17 0
-1195 18 0
-1195 1194 0
-1196 19 0
-1196 1195 0
-1197 21 0
-1197 1196 0
-1198 -22 0
-1198 1197 0
-1199 -23 0
-1199 1198 0
1200 -1193 1199 0
-1201 16 0
-1201 18 0
-1202 -19 0
-1202 1201 0
-1203 20 0
-1203 1202 0
-1204 21 0
-1204 1203 0
-1205 22 0
-1205 1204 0
-1206 23 0
-1206 1205 0
1207 -1200 1206 0
-1208 16 0
-1208 -17 0
-1209 18 0
-1209 1208 0
-1210 -20 0
-1210 1209 0
-1211 -21 0
-1211 1210 0
-1212 22 0
-1212 1211 0
-1213 23 0
-1213 1212 0
1214 -1207 1213 0
-1215 16 0
-1215 -17 0
-1216 18 0
-1216 1215 0
-1217 -19 0
-1217 1216 0
-1218 -20 0
-1218 1217 0
-1219 21 0
-1219 1218 0
-1220 -23 0
-1220 1219 0
1221 -1214 1220 0
-1222 16 0
-1222 -17 0
-1223 18 0
-1223 1222 0
-1224 -19 0
-1224 1223 0
-1225 20 0
-1225 1224 0
-1226 23 0
-1226 1225 0
1227 -1221 1226 0
-1228 16 0
-1228 -17 0
-1229 18 0
-1229 1228 0
-1230 19 0
-1230 1229 0
-1231 -21 0
-1231 1230 0
-1232 -22 0
-1232 1231 0
-1233 -23 0
-1233 1232 0
1234 -1227 1233 0
-1235 16 0
-1235 -17 0
-1236 18 0
-1236 1235 0
-1237 19 0
-1237 1236 0
-1238 21 0
-1238 1237 0
-1239 22 0
-1239 1238 0
-1240 -23 0
-1240 1239 0
1241 -1234 1240 0
-1242 16 0
-1242 17 0
-1243 -18 0
-1243 1242 0
-1244 19 0
-1244 1243 0
-1245 -20 0
-1245 1244 0
-1246 21 0
-1246 1245 0
-1247 23 0
-1247 1246 0
1248 -1241 1247 0
-1249 16 0
-1249 17 0
-1250 -18 0
-1250 1249 0
-1251 19 0
-1251 1250 0
-1252 20 0
-1252 1251 0
-1253 21 0
-1253 1252 0
-1254 -22 0
-1254 1253 0
-1255 23 0
-1255 1254 0
1256 -1248 1255 0
-1257 -15 0
-1257 -17 0
-1258 -19 0
-1258 1257 0
-1259 -20 0
-1259 1258 0
-1260 21 0
-1260 1259 0
-1261 22 0
-1261 1260 0
-1262 -23 0
-1262 1261 0
1263 -1256 1262 0
-1264 -15 0
-1264 -17 0
-1265 19 0
-1265 1264 0
-1266 21 0
-1266 1265 0
-1267 -22 0
-1267 1266 0
-1268 23 0
-1268 1267 0
1269 -1263 1268 0
-1270 -15 0
-1270 -17 0
-1271 19 0
-1271 1270 0
-1272 20 0
-1272 1271 0
-1273 22 0
-1273 1272 0
-1274 -23 0
-1274 1273 0
1275 -1269 1274 0
-1276 -15 0
-1276 -17 0
-1277 -18 0
-1277 1276 0
-1278 -20 0
-1278 1277 0
-1279 21 0
-1279 1278 0
-1280 -22 0
-1280 1279 0
-1281 23 0
-1281 1280 0
1282 -1275 1281 0
-1283 -15 0
-1283 -17 0
-1284 -18 0
-1284 1283 0
-1285 20 0
-1285 1284 0
-1286 -21 0
-1286 1285 0
-1287 22 0
-1287 1286 0
-1288 -23 0
-1288 1287 0
1289 -1282 1288 0
-1290 -15 0
-1290 -17 0
-1291 -18 0
-1291 1290 0
-1292 -19 0
-1292 1291 0
-1293 20 0
-1293 1292 0
-1294 21 0
-1294 1293 0
-1295 -22 0
-1295 1294 0
-1296 -23 0
-1296 1295 0
1297 -1289 1296 0
-1298 -15 0
-1298 -17 0
-1299 -18 0
-1299 1298 0
-1300 19 0
-1300 1299 0
-1301 -21 0
-1301 1300 0
-1302 22 0
-1302 1301 0
-1303 -23 0
-1303 1302 0
1304 -1297 1303 0
-1305 -15 0
-1305 -17 0
-1306 -18 0
-1306 1305 0
-1307 19 0
-1307 1306 0
-1308 -20 0
-1308 1307 0
-1309 21 0
-1309 1308 0
-1310 23 0
-1310 1309 0
1311 -1304 1310 0
-1312 -15 0
-1312 -17 0
-1313 -18 0
-1313 1312 0
-1314 19 0
-1314 1313 0
-1315 20 0
-1315 1314 0
-1316 -22 0
-1316 1315 0
-1317 23 0
-1317 1316 0
1318 -1311 1317 0
-1319 -15 0
-1319 17 0
-1320 18 0
-1320 1319 0
-1321 -19 0
-1321 1320 0
-1322 -20 0
-1322 1321 0
-1323 21 0
-1323 1322 0
-1324 22 0
-1324 1323 0
-1325 23 0
-1325 1324 0
1326 -1318 1325 0
-1327 -15 0
-1327 -16 0
-1328 -18 0
-1328 1327 0
-1329 20 0
-1329 1328 0
-1330 -21 0
-1330 1329 0
-1331 -22 0
-1331 1330 0
-1332 -23 0
-1332 1331 0
1333 -1326 1332 0
-1334 -15 0
-1334 -16 0
-1335 -18 0
-1335 1334 0
-1336 20 0
-1336 1335 0
-1337 -21 0
-1337 1336 0
-1338 22 0
-1338 1337 0
-1339 23 0
-1339 1338 0
1340 -1333 1339 0
-1341 -15 0
-1341 -16 0
-1342 -18 0
-1342 1341 0
-1343 -19 0
-1343 1342 0
-1344 21 0
-1344 1343 0
-1345 -22 0
-1345 1344 0
-1346 23 0
-1346 1345 0
1347 -1340 1346 0
-1348 -15 0
-1348 -16 0
-1349 -18 0
-1349 1348 0
-1350 -19 0
-1350 1349 0
-1351 -20 0
-1351 1350 0
-1352 21 0
-1352 1351 0
-1353 23 0
-1353 1352 0
1354 -1347 1353 0
-1355 -15 0
-1355 -16 0
-1356 -18 0
-1356 1355 0
-1357 19 0
-1357 1356 0
-1358 -21 0
-1358 1357 0
-1359 22 0
-1359 1358 0
-1360 23 0
-1360 1359 0
1361 -1354 1360 0
-1362 -15 0
-1362 -16 0
-1363 -18 0
-1363 1362 0
-1364 19 0
-1364 1363 0
-1365 -20 0
-1365 1364 0
-1366 -21 0
-1366 1365 0
-1367 23 0
-1367 1366 0
1368 -1361 1367 0
-1369 -15 0
-1369 -16 0
-1370 -18 0
-1370 1369 0
-1371 19 0
-1371 1370 0
-1372 -20 0
-1372 1371 0
-1373 21 0
-1373 1372 0
-1374 -23 0
-1374 1373 0
1375 -1368 1374 0
-1376 -15 0
-1376 -16 0
-1377 -18 0
-1377 1376 0
-1378 19 0
-1378 1377 0
-1379 20 0
-1379 1378 0
-1380 -22 0
-1380 1379 0
-1381 -23 0
-1381 1380 0
1382 -1375 1381 0
-1383 -15 0
-1383 -16 0
-1384 18 0
-1384 1383 0
-1385 -19 0
-1385 1384 0
-1386 -20 0
-1386 1385 0
-1387 -21 0
-1387 1386 0
-1388 22 0
-1388 1387 0
-1389 23 0
-1389 1388 0
1390 -1382 1389 0
-1391 -15 0
-1391 -16 0
-1392 -17 0
-1392 1391 0
-1393 -20 0
-1393 1392 0
-1394 21 0
-1394 1393 0
-1395 -22 0
-1395 1394 0
-1396 23 0
-1396 1395 0
1397 -1390 1396 0
-1398 -15 0
-1398 -16 0
-1399 -17 0
-1399 1398 0
-1400 -19 0
-1400 1399 0
-1401 20 0
-1401 1400 0
-1402 -22 0
-1402 1401 0
-1403 -23 0
-1403 1402 0
1404 -1397 1403 0
-1405 -15 0
-1405 -16 0
-1406 -17 0
-1406 1405 0
-1407 -19 0
-1407 1406 0
-1408 20 0
-1408 1407 0
-1409 -21 0
-1409 1408 0
-1410 -23 0
-1410 1409 0
1411 -1404 1410 0
-1412 -15 0
-1412 -16 0
-1413 -17 0
-1413 1412 0
-1414 19 0
-1414 1413 0
-1415 -22 0
-1415 1414 0
-1416 23 0
-1416 1415 0
1417 -1411 1416 0
-1418 -15 0
-1418 -16 0
-1419 -17 0
-1419 1418 0
-1420 19 0
-1420 1419 0
-1421 -21 0
-1421 1420 0
-1422 22 0
-1422 1421 0
-1423 -23 0
-1423 1422 0
1424 -1417 1423 0
-1425 -15 0
-1425 -16 0
-1426 -17 0
-1426 1425 0
-1427 -18 0
-1427 1426 0
-1428 22 0
-1428 1427 0
1429 -1424 1428 0
-1430 -15 0
-1430 -16 0
-1431 -17 0
-1431 1430 0
-1432 -18 0
-1432 1431 0
-1433 21 0
-1433 1432 0
1434 -1429 1433 0
-1435 -15 0
-1435 -16 0
-1436 -17 0
-1436 1435 0
-1437 -18 0
-1437 1436 0
-1438 20 0
-1438 1437 0
1439 -1434 1438 0
-1440 -15 0
-1440 -16 0
-1441 -17 0
-1441 1440 0
-1442 -18 0
-1442 1441 0
-1443 19 0
-1443 1442 0
1444 -1439 1443 0
-1445 -15 0
-1445 -16 0
-1446 17 0
-1446 1445 0
-1447 19 0
-1447 1446 0
-1448 -21 0
-1448 1447 0
-1449 22 0
-1449 1448 0
-1450 23 0
-1450 1449 0
1451 -1444 1450 0
-1452 -15 0
-1452 -16 0
-1453 17 0
-1453 1452 0
-1454 19 0
-1454 1453 0
-1455 -20 0
-1455 1454 0
-1456 21 0
-1456 1455 0
-1457 -23 0
-1457 1456 0
1458 -1451 1457 0
-1459 -15 0
-1459 -16 0
-1460 17 0
-1460 1459 0
-1461 19 0
-1461 1460 0
-1462 20 0
-1462 1461 0
-1463 -22 0
-1463 1462 0
-1464 -23 0
-1464 1463 0
1465 -1458 1464 0
-1466 -15 0
-1466 -16 0
-1467 17 0
-1467 1466 0
-1468 18 0
-1468 1467 0
-1469 -21 0
-1469 1468 0
-1470 22 0
-1470 1469 0
-1471 23 0
-1471 1470 0
1472 -1465 1471 0
-1473 -15 0
-1473 -16 0
-1474 17 0
-1474 1473 0
-1475 18 0
-1475 1474 0
-1476 -20 0
-1476 1475 0
-1477 21 0
-1477 1476 0
-1478 -22 0
-1478 1477 0
-1479 -23 0
-1479 1478 0
1480 -1472 1479 0
-1481 -15 0
-1481 -16 0
-1482 17 0
-1482 1481 0
-1483 18 0
-1483 1482 0
-1484 -19 0
-1484 1483 0
-1485 -20 0
-1485 1484 0
-1486 22 0
-1486 1485 0
-1487 23 0
-1487 1486 0
1488 -1480 1487 0
-1489 -15 0
-1489 -16 0
-1490 17 0
-1490 1489 0
-1491 18 0
-1491 1490 0
-1492 -19 0
-1492 1491 0
-1493 20 0
-1493 1492 0
-1494 -22 0
-1494 1493 0
-1495 23 0
-1495 1494 0
1496 -1488 1495 0
-1497 -15 0
-1497 -16 0
-1498 17 0
-1498 1497 0
-1499 18 0
-1499 1498 0
-1500 19 0
-1500 1499 0
-1501 -22 0
-1501 1500 0
-1502 -23 0
-1502 1501 0
1503 -1496 1502 0
-1504 -15 0
-1504 16 0
-1505 -19 0
-1505 1504 0
-1506 20 0
-1506 1505 0
-1507 21 0
-1507 1506 0
-1508 22 0
-1508 1507 0
-1509 23 0
-1509 1508 0
1510 -1503 1509 0
-1511 -15 0
-1511 16 0
-1512 19 0
-1512 1511 0
-1513 20 0
-1513 1512 0
-1514 22 0
-1514 1513 0
-1515 -23 0
-1515 1514 0
1516 -1510 1515 0
-1517 -15 0
-1517 16 0
-1518 19 0
-1518 1517 0
-1519 20 0
-1519 1518 0
-1520 21 0
-1520 1519 0
-1521 -22 0
-1521 1520 0
-1522 23 0
-1522 1521 0
1523 -1516 1522 0
-1524 -15 0
-1524 16 0
-1525 -18 0
-1525 1524 0
-1526 20 0
-1526 1525 0
-1527 -21 0
-1527 1526 0
-1528 22 0
-1528 1527 0
-1529 -23 0
-1529 1528 0
1530 -1523 1529 0
-1531 -15 0
-1531 16 0
-1532 -18 0
-1532 1531 0
-1533 -19 0
-1533 1532 0
-1534 -20 0
-1534 1533 0
-1535 -21 0
-1535 1534 0
-1536 22 0
-1536 1535 0
-1537 23 0
-1537 1536 0
1538 -1530 1537 0
-1539 -15 0
-1539 16 0
-1540 -18 0
-1540 1539 0
-1541 -19 0
-1541 1540 0
-1542 -20 0
-1542 1541 0
-1543 21 0
-1543 1542 0
-1544 22 0
-1544 1543 0
-1545 -23 0
-1545 1544 0
1546 -1538 1545 0
-1547 -15 0
-1547 16 0
-1548 -18 0
-1548 1547 0
-1549 -19 0
-1549 1548 0
-1550 20 0
-1550 1549 0
-1551 -21 0
-1551 1550 0
-1552 -22 0
-1552 1551 0
-1553 23 0
-1553 1552 0
1554 -1546 1553 0
-1555 -15 0
-1555 16 0
-1556 -18 0
-1556 1555 0
-1557 19 0
-1557 1556 0
-1558 21 0
-1558 1557 0
-1559 -22 0
-1559 1558 0
-1560 23 0
-1560 1559 0
1561 -1554 1560 0
-1562 -15 0
-1562 16 0
-1563 -18 0
-1563 1562 0
-1564 19 0
-1564 1563 0
-1565 -20 0
-1565 1564 0
-1566 -21 0
-1566 1565 0
-1567 -22 0
-1567 1566 0
-1568 -23 0
-1568 1567 0
1569 -1561 1568 0
-1570 -15 0
-1570 16 0
-1571 -18 0
-1571 1570 0
-1572 19 0
-1572 1571 0
-1573 -20 0
-1573 1572 0
-1574 21 0
-1574 1573 0
-1575 23 0
-1575 1574 0
1576 -1569 1575 0
-1577 -15 0
-1577 16 0
-1578 -17 0
-1578 1577 0
-1579 18 0
-1579 1578 0
-1580 19 0
-1580 1579 0
-1581 20 0
-1581 1580 0
-1582 -21 0
-1582 1581 0
-1583 -23 0
-1583 1582 0
1584 -1576 1583 0
-1585 -15 0
-1585 16 0
-1586 17 0
-1586 1585 0
-1587 19 0
-1587 1586 0
-1588 -20 0
-1588 1587 0
-1589 21 0
-1589 1588 0
-1590 23 0
-1590 1589 0
1591 -1584 1590 0
-1592 -15 0
-1592 16 0
-1593 17 0
-1593 1592 0
-1594 -18 0
-1594 1593 0
-1595 -19 0
-1595 1594 0
-1596 -20 0
-1596 1595 0
-1597 21 0
-1597 1596 0
-1598 -23 0
-1598 1597 0
1599 -1591 1598 0
-1600 -15 0
-1600 16 0
-1601 17 0
-1601 1600 0
-1602 -18 0
-1602 1601 0
-1603 -19 0
-1603 1602 0
-1604 20 0
-1604 1603 0
-1605 -22 0
-1605 1604 0
-1606 23 0
-1606 1605 0
1607 -1599 1606 0
-1608 -15 0
-1608 16 0
-1609 17 0
-1609 1608 0
-1610 -18 0
-1610 1609 0
-1611 19 0
-1611 1610 0
-1612 -20 0
-1612 1611 0
-1613 22 0
-1613 1612 0
-1614 23 0
-1614 1613 0
1615 -1607 1614 0
-1616 -15 0
-1616 16 0
-1617 17 0
-1617 1616 0
-1618 -18 0
-1618 1617 0
-1619 19 0
-1619 1618 0
-1620 20 0
-1620 1619 0
-1621 -21 0
-1621 1620 0
-1622 -23 0
-1622 1621 0
1623 -1615 1622 0
-1624 -15 0
-1624 16 0
-1625 17 0
-1625 1624 0
-1626 18 0
-1626 1625 0
-1627 -21 0
-1627 1626 0
-1628 22 0
-1628 1627 0
-1629 -23 0
-1629 1628 0
1630 -1623 1629 0
-1631 -15 0
-1631 16 0
-1632 17 0
-1632 1631 0
-1633 18 0
-1633 1632 0
-1634 -20 0
-1634 1633 0
-1635 21 0
-1635 1634 0
-1636 23 0
-1636 1635 0
1637 -1630 1636 0
-1638 -15 0
-1638 16 0
-1639 17 0
-1639 1638 0
-1640 18 0
-1640 1639 0
-1641 -19 0
-1641 1640 0
-1642 20 0
-1642 1641 0
-1643 -22 0
-1643 1642 0
-1644 -23 0
-1644 1643 0
1645 -1637 1644 0
-1646 -15 0
-1646 16 0
-1647 17 0
-1647 1646 0
-1648 18 0
-1648 1647 0
-1649 19 0
-1649 1648 0
-1650 -22 0
-1650 1649 0
-1651 23 0
-1651 1650 0
1652 -1645 1651 0
-1653 15 0
-1653 -18 0
-1654 -19 0
-1654 1653 0
-1655 -20 0
-1655 1654 0
-1656 -21 0
-1656 1655 0
-1657 22 0
-1657 1656 0
-1658 -23 0
-1658 1657 0
1659 -1652 1658 0
-1660 15 0
-1660 -18 0
-1661 -19 0
-1661 1660 0
-1662 -20 0
-1662 1661 0
-1663 21 0
-1663 1662 0
-1664 22 0
-1664 1663 0
-1665 23 0
-1665 1664 0
1666 -1659 1665 0
-1667 15 0
-1667 -18 0
-1668 -19 0
-1668 1667 0
-1669 20 0
-1669 1668 0
-1670 21 0
-1670 1669 0
-1671 22 0
-1671 1670 0
-1672 -23 0
-1672 1671 0
1673 -1666 1672 0
-1674 15 0
-1674 -18 0
-1675 19 0
-1675 1674 0
-1676 -20 0
-1676 1675 0
-1677 -21 0
-1677 1676 0
-1678 -22 0
-1678 1677 0
-1679 23 0
-1679 1678 0
1680 -1673 1679 0
-1681 15 0
-1681 -18 0
-1682 19 0
-1682 1681 0
-1683 20 0
-1683 1682 0
-1684 21 0
-1684 1683 0
-1685 22 0
-1685 1684 0
-1686 23 0
-1686 1685 0
1687 -1680 1686 0
-1688 15 0
-1688 -17 0
-1689 -18 0
-1689 1688 0
-1690 20 0
-1690 1689 0
-1691 -21 0
-1691 1690 0
-1692 22 0
-1692 1691 0
-1693 23 0
-1693 1692 0
1694 -1687 1693 0
-1695 15 0
-1695 -17 0
-1696 -18 0
-1696 1695 0
-1697 19 0
-1697 1696 0
-1698 -20 0
-1698 1697 0
-1699 21 0
-1699 1698 0
-1700 -23 0
-1700 1699 0
1701 -1694 1700 0
-1702 15 0
-1702 -17 0
-1703 -18 0
-1703 1702 0
-1704 19 0
-1704 1703 0
-1705 20 0
-1705 1704 0
-1706 22 0
-1706 1705 0
-1707 23 0
-1707 1706 0
1708 -1701 1707 0
-1709 15 0
-1709 -17 0
-1710 -18 0
-1710 1709 0
-1711 19 0
-1711 1710 0
-1712 20 0
-1712 1711 0
-1713 21 0
-1713 1712 0
-1714 -22 0
-1714 1713 0
-1715 -23 0
-1715 1714 0
1716 -1708 1715 0
-1717 15 0
-1717 -17 0
-1718 18 0
-1718 1717 0
-1719 -20 0
-1719 1718 0
-1720 -21 0
-1720 1719 0
-1721 22 0
-1721 1720 0
-1722 23 0
-1722 1721 0
1723 -1716 1722 0
-1724 15 0
-1724 -17 0
-1725 18 0
-1725 1724 0
-1726 -19 0
-1726 1725 0
-1727 -20 0
-1727 1726 0
-1728 21 0
-1728 1727 0
-1729 -23 0
-1729 1728 0
1730 -1723 1729 0
-1731 15 0
-1731 -17 0
-1732 18 0
-1732 1731 0
-1733 -19 0
-1733 1732 0
-1734 20 0
-1734 1733 0
-1735 -21 0
-1735 1734 0
-1736 -22 0
-1736 1735 0
-1737 23 0
-1737 1736 0
1738 -1730 1737 0
-1739 15 0
-1739 -17 0
-1740 18 0
-1740 1739 0
-1741 19 0
-1741 1740 0
-1742 -20 0
-1742 1741 0
-1743 -21 0
-1743 1742 0
-1744 -22 0
-1744 1743 0
-1745 -23 0
-1745 1744 0
1746 -1738 1745 0
-1747 15 0
-1747 17 0
-1748 -18 0
-1748 1747 0
-1749 -20 0
-1749 1748 0
-1750 -21 0
-1750 1749 0
-1751 22 0
-1751 1750 0
-1752 -23 0
-1752 1751 0
1753 -1746 1752 0
-1754 15 0
-1754 17 0
-1755 -18 0
-1755 1754 0
-1756 -20 0
-1756 1755 0
-1757 21 0
-1757 1756 0
-1758 23 0
-1758 1757 0
1759 -1753 1758 0
-1760 15 0
-1760 17 0
-1761 -18 0
-1761 1760 0
-1762 -19 0
-1762 1761 0
-1763 20 0
-1763 1762 0
-1764 -23 0
-1764 1763 0
1765 -1759 1764 0
-1766 15 0
-1766 17 0
-1767 -18 0
-1767 1766 0
-1768 19 0
-1768 1767 0
-1769 -21 0
-1769 1768 0
-1770 -22 0
-1770 1769 0
-1771 23 0
-1771 1770 0
1772 -1765 1771 0
-1773 15 0
-1773 17 0
-1774 -18 0
-1774 1773 0
-1775 19 0
-1775 1774 0
-1776 21 0
-1776 1775 0
-1777 22 0
-1777 1776 0
-1778 23 0
-1778 1777 0
1779 -1772 1778 0
-1780 15 0
-1780 17 0
-1781 -18 0
-1781 1780 0
-1782 19 0
-1782 1781 0
-1783 -20 0
-1783 1782 0
-1784 -22 0
-1784 1783 0
-1785 23 0
-1785 1784 0
1786 -1779 1785 0
-1787 15 0
-1787 17 0
-1788 18 0
-1788 1787 0
-1789 20 0
-1789 1788 0
-1790 -21 0
-1790 1789 0
-1791 22 0
-1791 1790 0
-1792 23 0
-1792 1791 0
1793 -1786 1792 0
-1794 15 0
-1794 17 0
-1795 18 0
-1795 1794 0
-1796 19 0
-1796 1795 0
-1797 21 0
-1797 1796 0
-1798 -22 0
-1798 1797 0
-1799 -23 0
-1799 1798 0
1800 -1793 1799 0
-1801 15 0
-1801 17 0
-1802 18 0
-1802 1801 0
-1803 19 0
-1803 1802 0
-1804 20 0
-1804 1803 0
-1805 22 0
-1805 1804 0
-1806 23 0
-1806 1805 0
1807 -1800 1806 0
-1808 15 0
-1808 -16 0
-1809 18 0
-1809 1808 0
-1810 19 0
-1810 1809 0
-1811 -20 0
-1811 1810 0
-1812 21 0
-1812 1811 0
-1813 22 0
-1813 1812 0
-1814 23 0
-1814 1813 0
1815 -1807 1814 0
-1816 15 0
-1816 -16 0
-1817 -17 0
-1817 1816 0
-1818 18 0
-1818 1817 0
-1819 -19 0
-1819 1818 0
-1820 21 0
-1820 1819 0
-1821 -22 0
-1821 1820 0
-1822 -23 0
-1822 1821 0
1823 -1815 1822 0
-1824 15 0
-1824 -16 0
-1825 -17 0
-1825 1824 0
-1826 18 0
-1826 1825 0
-1827 19 0
-1827 1826 0
-1828 -20 0
-1828 1827 0
-1829 22 0
-1829 1828 0
-1830 23 0
-1830 1829 0
1831 -1823 1830 0
-1832 15 0
-1832 -16 0
-1833 17 0
-1833 1832 0
-1834 -20 0
-1834 1833 0
-1835 -21 0
-1835 1834 0
-1836 22 0
-1836 1835 0
-1837 -23 0
-1837 1836 0
1838 -1831 1837 0
-1839 15 0
-1839 -16 0
-1840 17 0
-1840 1839 0
-1841 -20 0
-1841 1840 0
-1842 21 0
-1842 1841 0
-1843 22 0
-1843 1842 0
-1844 23 0
-1844 1843 0
1845 -1838 1844 0
-1846 15 0
-1846 -16 0
-1847 17 0
-1847 1846 0
-1848 20 0
-1848 1847 0
-1849 21 0
-1849 1848 0
-1850 -22 0
-1850 1849 0
-1851 -23 0
-1851 1850 0
1852 -1845 1851 0
-1853 15 0
-1853 -16 0
-1854 17 0
-1854 1853 0
-1855 -19 0
-1855 1854 0
-1856 -20 0
-1856 1855 0
-1857 21 0
-1857 1856 0
-1858 23 0
-1858 1857 0
1859 -1852 1858 0
-1860 15 0
-1860 -16 0
-1861 17 0
-1861 1860 0
-1862 -19 0
-1862 1861 0
-1863 20 0
-1863 1862 0
-1864 -22 0
-1864 1863 0
-1865 -23 0
-1865 1864 0
1866 -1859 1865 0
-1867 15 0
-1867 -16 0
-1868 17 0
-1868 1867 0
-1869 19 0
-1869 1868 0
-1870 -21 0
-1870 1869 0
-1871 -22 0
-1871 1870 0
-1872 23 0
-1872 1871 0
1873 -1866 1872 0
-1874 15 0
-1874 -16 0
-1875 17 0
-1875 1874 0
-1876 19 0
-1876 1875 0
-1877 20 0
-1877 1876 0
-1878 -21 0
-1878 1877 0
-1879 23 0
-1879 1878 0
1880 -1873 1879 0
-1881 15 0
-1881 16 0
-1882 -18 0
-1882 1881 0
-1883 -20 0
-1883 1882 0
-1884 -21 0
-1884 1883 0
-1885 22 0
-1885 1884 0
-1886 -23 0
-1886 1885 0
1887 -1880 1886 0
-1888 15 0
-1888 16 0
-1889 -18 0
-1889 1888 0
-1890 -19 0
-1890 1889 0
-1891 -20 0
-1891 1890 0
-1892 21 0
-1892 1891 0
-1893 23 0
-1893 1892 0
1894 -1887 1893 0
-1895 15 0
-1895 16 0
-1896 -18 0
-1896 1895 0
-1897 -19 0
-1897 1896 0
-1898 20 0
-1898 1897 0
-1899 -21 0
-1899 1898 0
-1900 -22 0
-1900 1899 0
-1901 -23 0
-1901 1900 0
1902 -1894 1901 0
-1903 15 0
-1903 16 0
-1904 18 0
-1904 1903 0
-1905 -21 0
-1905 1904 0
-1906 22 0
-1906 1905 0
-1907 23 0
-1907 1906 0
1908 -1902 1907 0
-1909 15 0
-1909 16 0
-1910 18 0
-1910 1909 0
-1911 -20 0
-1911 1910 0
-1912 21 0
-1912 1911 0
-1913 -23 0
-1913 1912 0
1914 -1908 1913 0
-1915 15 0
-1915 16 0
-1916 18 0
-1916 1915 0
-1917 -19 0
-1917 1916 0
-1918 20 0
-1918 1917 0
-1919 23 0
-1919 1918 0
1920 -1914 1919 0
-1921 15 0
-1921 16 0
-1922 18 0
-1922 1921 0
-1923 19 0
-1923 1922 0
-1924 -20 0
-1924 1923 0
-1925 -22 0
-1925 1924 0
-1926 -23 0
-1926 1925 0
1927 -1920 1926 0
-1928 15 0
-1928 16 0
-1929 -17 0
-1929 1928 0
-1930 19 0
-1930 1929 0
-1931 -20 0
-1931 1930 0
-1932 21 0
-1932 1931 0
-1933 -23 0
-1933 1932 0
1934 -1927 1933 0
-1935 15 0
-1935 16 0
-1936 -17 0
-1936 1935 0
-1937 -18 0
-1937 1936 0
-1938 -19 0
-1938 1937 0
-1939 21 0
-1939 1938 0
-1940 -22 0
-1940 1939 0
-1941 23 0
-1941 1940 0
1942 -1934 1941 0
-1943 15 0
-1943 16 0
-1944 -17 0
-1944 1943 0
-1945 -18 0
-1945 1944 0
-1946 19 0
-1946 1945 0
-1947 -20 0
-1947 1946 0
-1948 22 0
-1948 1947 0
-1949 -23 0
-1949 1948 0
1950 -1942 1949 0
-1951 15 0
-1951 16 0
-1952 -17 0
-1952 1951 0
-1953 -18 0
-1953 1952 0
-1954 19 0
-1954 1953 0
-1955 20 0
-1955 1954 0
-1956 -21 0
-1956 1955 0
-1957 23 0
-1957 1956 0
1958 -1950 1957 0
-1959 15 0
-1959 16 0
-1960 17 0
-1960 1959 0
-1961 -18 0
-1961 1960 0
-1962 -21 0
-1962 1961 0
-1963 22 0
-1963 1962 0
-1964 -23 0
-1964 1963 0
1965 -1958 1964 0
-1966 15 0
-1966 16 0
-1967 17 0
-1967 1966 0
-1968 -18 0
-1968 1967 0
-1969 19 0
-1969 1968 0
-1970 -22 0
-1970 1969 0
-1971 23 0
-1971 1970 0
1972 -1965 1971 0
-1973 15 0
-1973 16 0
-1974 17 0
-1974 1973 0
-1975 18 0
-1975 1974 0
-1976 19 0
-1976 1975 0
-1977 -22 0
-1977 1976 0
-1978 -23 0
-1978 1977 0
1979 -1972 1978 0
1980 -1 -1979 0
-1981 1 0
-1981 1023 0
-1982 1 0
-1982 1981 0
-1983 1005 0
-1983 1982 0
-1984 -1980 0
-1984 1983 0
1984 0
