p cnf 997 1144
1 0
-15 -2 0
-15 -3 0
-16 -4 0
-16 -5 0
-17 15 0
-17 16 0
-18 -9 8 0
-18 9 -8 0
18 -9 -8 0
18 9 8 0
19 10 11 0
20 12 13 0
21 -19 -20 0
22 18 10 0
22 -18 -10 0
23 -11 6 0
23 11 -6 0
-24 -22 0
-24 -23 0
25 -12 7 0
25 12 -7 0
26 -13 8 0
26 13 -8 0
-27 -25 0
-27 -26 0
-28 24 0
-28 27 0
-29 -21 0
-29 28 0
-30 14 0
-30 29 0
-31 17 0
-31 30 0
-32 -6 0
-32 18 0
-33 -7 0
-33 -8 0
-34 32 0
-34 33 0
-35 -21 0
-35 34 0
36 31 35 0
37 -1 -36 0
38 8 -9 0
39 10 -38 0
40 11 -39 0
41 12 -40 0
42 -13 -41 0
43 8 -9 0
44 10 -43 0
45 11 -44 0
46 -12 -45 0
47 -13 -46 0
-48 14 -47 0
-48 -14 -42 0
49 8 -9 0
50 10 -49 0
51 -11 -50 0
52 -12 -51 0
53 -13 -52 0
54 -14 -53 0
-55 48 0
-55 -54 0
56 8 -9 0
57 -10 -56 0
58 -11 -57 0
59 -12 -58 0
60 13 -59 0
61 -14 -60 0
-62 55 0
-62 -61 0
63 8 -9 0
64 -10 -63 0
65 -11 -64 0
66 -12 -65 0
67 -13 -66 0
68 14 -67 0
-69 62 0
-69 -68 0
70 7 9 0
71 10 -70 0
72 11 -71 0
73 12 -72 0
74 -13 -73 0
75 14 -74 0
-76 69 0
-76 -75 0
77 7 9 0
78 10 -77 0
79 11 -78 0
80 -12 -79 0
81 -13 -80 0
82 -14 -81 0
-83 76 0
-83 -82 0
84 7 9 0
85 -10 -84 0
86 -11 -85 0
87 -13 -86 0
88 -14 -87 0
-89 83 0
-89 -88 0
90 7 9 0
91 -10 -90 0
92 -11 -91 0
93 -12 -92 0
94 13 -93 0
95 14 -94 0
-96 89 0
-96 -95 0
97 7 8 0
98 9 -97 0
99 11 -98 0
100 -12 -99 0
101 13 -100 0
102 14 -101 0
-103 96 0
-103 -102 0
104 7 8 0
105 9 -104 0
106 10 -105 0
107 -11 -106 0
108 13 -107 0
109 -14 -108 0
-110 103 0
-110 -109 0
111 7 8 0
112 9 -111 0
113 10 -112 0
114 -11 -113 0
115 12 -114 0
116 -14 -115 0
-117 110 0
-117 -116 0
118 7 8 0
119 9 -118 0
120 -10 -119 0
121 12 -120 0
122 -13 -121 0
123 -14 -122 0
-124 117 0
-124 -123 0
125 7 8 0
126 9 -125 0
127 -10 -126 0
128 11 -127 0
129 12 -128 0
130 -14 -129 0
-131 124 0
-131 -130 0
132 7 8 0
133 9 -132 0
134 -10 -133 0
135 11 -134 0
136 -12 -135 0
137 14 -136 0
-138 131 0
-138 -137 0
139 7 8 0
140 9 -139 0
141 -10 -140 0
142 -11 -141 0
143 13 -142 0
144 14 -143 0
-145 138 0
-145 -144 0
146 7 8 0
147 -9 -146 0
148 -11 -147 0
149 12 -148 0
150 -13 -149 0
151 14 -150 0
-152 145 0
-152 -151 0
153 7 8 0
154 -9 -153 0
155 -10 -154 0
156 11 -155 0
157 -12 -156 0
158 -14 -157 0
-159 152 0
-159 -158 0
160 7 8 0
161 -9 -160 0
162 -10 -161 0
163 -11 -162 0
164 13 -163 0
165 -14 -164 0
-166 159 0
-166 -165 0
167 7 8 0
168 -9 -167 0
169 -10 -168 0
170 -11 -169 0
171 -13 -170 0
172 14 -171 0
-173 166 0
-173 -172 0
174 7 -8 0
175 10 -174 0
176 11 -175 0
177 -12 -176 0
178 -13 -177 0
179 -14 -178 0
-180 173 0
-180 -179 0
181 7 -8 0
182 10 -181 0
183 -11 -182 0
184 -12 -183 0
185 -13 -184 0
186 14 -185 0
-187 180 0
-187 -186 0
188 7 -8 0
189 -10 -188 0
190 -11 -189 0
191 -13 -190 0
192 -14 -191 0
-193 187 0
-193 -192 0
194 7 -8 0
195 -10 -194 0
196 -11 -195 0
197 -12 -196 0
198 13 -197 0
199 14 -198 0
-200 193 0
-200 -199 0
201 7 -8 0
202 -9 -201 0
203 -11 -202 0
204 12 -203 0
205 -13 -204 0
206 -14 -205 0
-207 200 0
-207 -206 0
208 7 -8 0
209 -9 -208 0
210 -10 -209 0
211 -12 -210 0
212 13 -211 0
213 14 -212 0
-214 207 0
-214 -213 0
215 -7 -9 0
216 10 -215 0
217 -11 -216 0
218 -12 -217 0
219 -13 -218 0
220 -14 -219 0
-221 214 0
-221 -220 0
222 -7 8 0
223 -9 -222 0
224 11 -223 0
225 12 -224 0
226 -13 -225 0
227 -14 -226 0
-228 221 0
-228 -227 0
229 -7 8 0
230 -9 -229 0
231 10 -230 0
232 11 -231 0
233 -12 -232 0
234 14 -233 0
-235 228 0
-235 -234 0
236 -7 8 0
237 -9 -236 0
238 10 -237 0
239 -11 -238 0
240 -14 -239 0
-241 235 0
-241 -240 0
242 -7 8 0
243 -9 -242 0
244 -10 -243 0
245 12 -244 0
246 13 -245 0
247 14 -246 0
-248 241 0
-248 -247 0
249 -7 8 0
250 -9 -249 0
251 -10 -250 0
252 -12 -251 0
253 -13 -252 0
254 14 -253 0
-255 248 0
-255 -254 0
256 -7 -8 0
257 9 -256 0
258 -10 -257 0
259 11 -258 0
260 -12 -259 0
261 -14 -260 0
-262 255 0
-262 -261 0
263 -7 -8 0
264 9 -263 0
265 -10 -264 0
266 -11 -265 0
267 -12 -266 0
268 13 -267 0
269 -14 -268 0
-270 262 0
-270 -269 0
271 6 8 0
272 10 -271 0
273 11 -272 0
274 -12 -273 0
275 -13 -274 0
276 14 -275 0
-277 270 0
-277 -276 0
278 6 8 0
279 -10 -278 0
280 -12 -279 0
281 13 -280 0
282 -14 -281 0
-283 277 0
-283 -282 0
284 6 8 0
285 -10 -284 0
286 -11 -285 0
287 -13 -286 0
288 14 -287 0
-289 283 0
-289 -288 0
290 6 8 0
291 9 -290 0
292 11 -291 0
293 -12 -292 0
294 13 -293 0
295 -14 -294 0
-296 289 0
-296 -295 0
297 6 8 0
298 9 -297 0
299 -11 -298 0
300 12 -299 0
301 -13 -300 0
302 14 -301 0
-303 296 0
-303 -302 0
304 6 8 0
305 9 -304 0
306 10 -305 0
307 -11 -306 0
308 -12 -307 0
309 13 -308 0
310 14 -309 0
-311 303 0
-311 -310 0
312 6 8 0
313 9 -312 0
314 -10 -313 0
315 12 -314 0
316 -13 -315 0
317 14 -316 0
-318 311 0
-318 -317 0
319 6 8 0
320 9 -319 0
321 -10 -320 0
322 11 -321 0
323 -12 -322 0
324 -14 -323 0
-325 318 0
-325 -324 0
326 6 8 0
327 9 -326 0
328 -10 -327 0
329 -11 -328 0
330 13 -329 0
331 -14 -330 0
-332 325 0
-332 -331 0
333 6 -8 0
334 -9 -333 0
335 10 -334 0
336 11 -335 0
337 -12 -336 0
338 -13 -337 0
339 -14 -338 0
-340 332 0
-340 -339 0
341 6 7 0
342 9 -341 0
343 -11 -342 0
344 12 -343 0
345 13 -344 0
346 14 -345 0
-347 340 0
-347 -346 0
348 6 7 0
349 9 -348 0
350 -11 -349 0
351 12 -350 0
352 -13 -351 0
353 -14 -352 0
-354 347 0
-354 -353 0
355 6 7 0
356 9 -355 0
357 10 -356 0
358 -12 -357 0
359 13 -358 0
360 -14 -359 0
-361 354 0
-361 -360 0
362 6 7 0
363 9 -362 0
364 10 -363 0
365 11 -364 0
366 -12 -365 0
367 -14 -366 0
-368 361 0
-368 -367 0
369 6 7 0
370 9 -369 0
371 -10 -370 0
372 12 -371 0
373 -13 -372 0
374 -14 -373 0
-375 368 0
-375 -374 0
376 6 7 0
377 9 -376 0
378 -10 -377 0
379 11 -378 0
380 12 -379 0
381 -14 -380 0
-382 375 0
-382 -381 0
383 6 7 0
384 9 -383 0
385 -10 -384 0
386 11 -385 0
387 -12 -386 0
388 14 -387 0
-389 382 0
-389 -388 0
390 6 7 0
391 9 -390 0
392 -10 -391 0
393 -11 -392 0
394 13 -393 0
395 14 -394 0
-396 389 0
-396 -395 0
397 6 7 0
398 -9 -397 0
399 10 -398 0
400 11 -399 0
401 12 -400 0
402 -13 -401 0
403 -14 -402 0
-404 396 0
-404 -403 0
405 6 7 0
406 8 -405 0
407 11 -406 0
408 -12 -407 0
409 13 -408 0
410 -14 -409 0
-411 404 0
-411 -410 0
412 6 7 0
413 8 -412 0
414 10 -413 0
415 -11 -414 0
416 13 -415 0
417 14 -416 0
-418 411 0
-418 -417 0
419 6 7 0
420 8 -419 0
421 10 -420 0
422 -11 -421 0
423 12 -422 0
424 14 -423 0
-425 418 0
-425 -424 0
426 6 7 0
427 8 -426 0
428 -10 -427 0
429 13 -428 0
430 -14 -429 0
-431 425 0
-431 -430 0
432 6 7 0
433 8 -432 0
434 -10 -433 0
435 12 -434 0
436 -13 -435 0
437 14 -436 0
-438 431 0
-438 -437 0
439 6 7 0
440 8 -439 0
441 9 -440 0
442 -13 -441 0
-443 438 0
-443 -442 0
444 6 7 0
445 8 -444 0
446 9 -445 0
447 -12 -446 0
-448 443 0
-448 -447 0
449 6 7 0
450 8 -449 0
451 9 -450 0
452 -11 -451 0
-453 448 0
-453 -452 0
454 6 7 0
455 8 -454 0
456 9 -455 0
457 -10 -456 0
-458 453 0
-458 -457 0
459 6 7 0
460 -8 -459 0
461 -10 -460 0
462 12 -461 0
463 -13 -462 0
464 -14 -463 0
-465 458 0
-465 -464 0
466 6 7 0
467 -8 -466 0
468 -10 -467 0
469 11 -468 0
470 -12 -469 0
471 14 -470 0
-472 465 0
-472 -471 0
473 6 7 0
474 -8 -473 0
475 -10 -474 0
476 -11 -475 0
477 13 -476 0
478 14 -477 0
-479 472 0
-479 -478 0
480 6 7 0
481 -8 -480 0
482 -9 -481 0
483 12 -482 0
484 -13 -483 0
485 -14 -484 0
-486 479 0
-486 -485 0
487 6 7 0
488 -8 -487 0
489 -9 -488 0
490 11 -489 0
491 -12 -490 0
492 13 -491 0
493 14 -492 0
-494 486 0
-494 -493 0
495 6 7 0
496 -8 -495 0
497 -9 -496 0
498 10 -497 0
499 11 -498 0
500 -13 -499 0
501 -14 -500 0
-502 494 0
-502 -501 0
503 6 7 0
504 -8 -503 0
505 -9 -504 0
506 10 -505 0
507 -11 -506 0
508 13 -507 0
509 -14 -508 0
-510 502 0
-510 -509 0
511 6 7 0
512 -8 -511 0
513 -9 -512 0
514 -10 -513 0
515 13 -514 0
516 14 -515 0
-517 510 0
-517 -516 0
518 6 -7 0
519 10 -518 0
520 -11 -519 0
521 -12 -520 0
522 -13 -521 0
523 -14 -522 0
-524 517 0
-524 -523 0
525 6 -7 0
526 -10 -525 0
527 -11 -526 0
528 -13 -527 0
529 14 -528 0
-530 524 0
-530 -529 0
531 6 -7 0
532 -10 -531 0
533 -11 -532 0
534 -12 -533 0
535 13 -534 0
536 -14 -535 0
-537 530 0
-537 -536 0
538 6 -7 0
539 9 -538 0
540 -11 -539 0
541 12 -540 0
542 -13 -541 0
543 14 -542 0
-544 537 0
-544 -543 0
545 6 -7 0
546 9 -545 0
547 10 -546 0
548 11 -547 0
549 12 -548 0
550 -13 -549 0
551 -14 -550 0
-552 544 0
-552 -551 0
553 6 -7 0
554 9 -553 0
555 10 -554 0
556 11 -555 0
557 -12 -556 0
558 -13 -557 0
559 14 -558 0
-560 552 0
-560 -559 0
561 6 -7 0
562 9 -561 0
563 10 -562 0
564 -11 -563 0
565 12 -564 0
566 13 -565 0
567 -14 -566 0
-568 560 0
-568 -567 0
569 6 -7 0
570 9 -569 0
571 -10 -570 0
572 -12 -571 0
573 13 -572 0
574 -14 -573 0
-575 568 0
-575 -574 0
576 6 -7 0
577 9 -576 0
578 -10 -577 0
579 11 -578 0
580 12 -579 0
581 13 -580 0
582 14 -581 0
-583 575 0
-583 -582 0
584 6 -7 0
585 9 -584 0
586 -10 -585 0
587 11 -586 0
588 -12 -587 0
589 -14 -588 0
-590 583 0
-590 -589 0
591 6 -7 0
592 8 -591 0
593 -9 -592 0
594 -10 -593 0
595 -11 -594 0
596 12 -595 0
597 14 -596 0
-598 590 0
-598 -597 0
599 6 -7 0
600 -8 -599 0
601 -10 -600 0
602 11 -601 0
603 -12 -602 0
604 -14 -603 0
-605 598 0
-605 -604 0
606 6 -7 0
607 -8 -606 0
608 9 -607 0
609 10 -608 0
610 11 -609 0
611 -12 -610 0
612 14 -611 0
-613 605 0
-613 -612 0
614 6 -7 0
615 -8 -614 0
616 9 -615 0
617 10 -616 0
618 -11 -617 0
619 13 -618 0
620 -14 -619 0
-621 613 0
-621 -620 0
622 6 -7 0
623 -8 -622 0
624 9 -623 0
625 -10 -624 0
626 11 -625 0
627 -13 -626 0
628 -14 -627 0
-629 621 0
-629 -628 0
630 6 -7 0
631 -8 -630 0
632 9 -631 0
633 -10 -632 0
634 -11 -633 0
635 12 -634 0
636 14 -635 0
-637 629 0
-637 -636 0
638 6 -7 0
639 -8 -638 0
640 -9 -639 0
641 12 -640 0
642 -13 -641 0
643 14 -642 0
-644 637 0
-644 -643 0
645 6 -7 0
646 -8 -645 0
647 -9 -646 0
648 11 -647 0
649 -12 -648 0
650 -14 -649 0
-651 644 0
-651 -650 0
652 6 -7 0
653 -8 -652 0
654 -9 -653 0
655 10 -654 0
656 -11 -655 0
657 13 -656 0
658 14 -657 0
-659 651 0
-659 -658 0
660 6 -7 0
661 -8 -660 0
662 -9 -661 0
663 -10 -662 0
664 13 -663 0
665 -14 -664 0
-666 659 0
-666 -665 0
667 -6 9 0
668 10 -667 0
669 11 -668 0
670 12 -669 0
671 -13 -670 0
672 14 -671 0
-673 666 0
-673 -672 0
674 -6 9 0
675 10 -674 0
676 11 -675 0
677 -12 -676 0
678 -13 -677 0
679 -14 -678 0
-680 673 0
-680 -679 0
681 -6 9 0
682 10 -681 0
683 -11 -682 0
684 -12 -683 0
685 -13 -684 0
686 14 -685 0
-687 680 0
-687 -686 0
688 -6 9 0
689 -10 -688 0
690 11 -689 0
691 12 -690 0
692 13 -691 0
693 -14 -692 0
-694 687 0
-694 -693 0
695 -6 9 0
696 -10 -695 0
697 -11 -696 0
698 -12 -697 0
699 -13 -698 0
700 -14 -699 0
-701 694 0
-701 -700 0
702 -6 8 0
703 9 -702 0
704 -11 -703 0
705 12 -704 0
706 -13 -705 0
707 -14 -706 0
-708 701 0
-708 -707 0
709 -6 8 0
710 9 -709 0
711 -10 -710 0
712 11 -711 0
713 -12 -712 0
714 14 -713 0
-715 708 0
-715 -714 0
716 -6 8 0
717 9 -716 0
718 -10 -717 0
719 -11 -718 0
720 -13 -719 0
721 -14 -720 0
-722 715 0
-722 -721 0
723 -6 8 0
724 9 -723 0
725 -10 -724 0
726 -11 -725 0
727 -12 -726 0
728 13 -727 0
729 14 -728 0
-730 722 0
-730 -729 0
731 -6 8 0
732 -9 -731 0
733 11 -732 0
734 12 -733 0
735 -13 -734 0
736 -14 -735 0
-737 730 0
-737 -736 0
738 -6 8 0
739 -9 -738 0
740 10 -739 0
741 11 -740 0
742 -12 -741 0
743 14 -742 0
-744 737 0
-744 -743 0
745 -6 8 0
746 -9 -745 0
747 10 -746 0
748 -11 -747 0
749 12 -748 0
750 13 -749 0
751 -14 -750 0
-752 744 0
-752 -751 0
753 -6 8 0
754 -9 -753 0
755 -10 -754 0
756 11 -755 0
757 12 -756 0
758 13 -757 0
759 14 -758 0
-760 752 0
-760 -759 0
761 -6 -8 0
762 9 -761 0
763 11 -762 0
764 12 -763 0
765 -13 -764 0
766 14 -765 0
-767 760 0
-767 -766 0
768 -6 -8 0
769 9 -768 0
770 11 -769 0
771 -12 -770 0
772 -14 -771 0
-773 767 0
-773 -772 0
774 -6 -8 0
775 9 -774 0
776 10 -775 0
777 -11 -776 0
778 14 -777 0
-779 773 0
-779 -778 0
780 -6 -8 0
781 9 -780 0
782 -10 -781 0
783 12 -782 0
784 13 -783 0
785 -14 -784 0
-786 779 0
-786 -785 0
787 -6 -8 0
788 9 -787 0
789 -10 -788 0
790 -12 -789 0
791 -13 -790 0
792 -14 -791 0
-793 786 0
-793 -792 0
794 -6 -8 0
795 9 -794 0
796 -10 -795 0
797 11 -796 0
798 13 -797 0
799 -14 -798 0
-800 793 0
-800 -799 0
801 -6 -8 0
802 -9 -801 0
803 -11 -802 0
804 12 -803 0
805 -13 -804 0
806 -14 -805 0
-807 800 0
-807 -806 0
808 -6 -8 0
809 -9 -808 0
810 -10 -809 0
811 -12 -810 0
812 13 -811 0
813 14 -812 0
-814 807 0
-814 -813 0
815 -6 -8 0
816 -9 -815 0
817 -10 -816 0
818 -11 -817 0
819 -13 -818 0
820 -14 -819 0
-821 814 0
-821 -820 0
822 -6 7 0
823 -9 -822 0
824 -10 -823 0
825 11 -824 0
826 -12 -825 0
827 -13 -826 0
828 -14 -827 0
-829 821 0
-829 -828 0
830 -6 7 0
831 8 -830 0
832 -9 -831 0
833 10 -832 0
834 -12 -833 0
835 13 -834 0
836 14 -835 0
-837 829 0
-837 -836 0
838 -6 7 0
839 8 -838 0
840 -9 -839 0
841 -10 -840 0
842 11 -841 0
843 -13 -842 0
844 -14 -843 0
-845 837 0
-845 -844 0
846 -6 7 0
847 -8 -846 0
848 11 -847 0
849 12 -848 0
850 -13 -849 0
851 14 -850 0
-852 845 0
-852 -851 0
853 -6 7 0
854 -8 -853 0
855 11 -854 0
856 -12 -855 0
857 -13 -856 0
858 -14 -857 0
-859 852 0
-859 -858 0
860 -6 7 0
861 -8 -860 0
862 -11 -861 0
863 -12 -862 0
864 13 -863 0
865 14 -864 0
-866 859 0
-866 -865 0
867 -6 7 0
868 -8 -867 0
869 10 -868 0
870 11 -869 0
871 -12 -870 0
872 -14 -871 0
-873 866 0
-873 -872 0
874 -6 7 0
875 -8 -874 0
876 10 -875 0
877 -11 -876 0
878 13 -877 0
879 14 -878 0
-880 873 0
-880 -879 0
881 -6 7 0
882 -8 -881 0
883 -10 -882 0
884 12 -883 0
885 13 -884 0
886 -14 -885 0
-887 880 0
-887 -886 0
888 -6 7 0
889 -8 -888 0
890 -10 -889 0
891 -11 -890 0
892 12 -891 0
893 -14 -892 0
-894 887 0
-894 -893 0
895 -6 -7 0
896 9 -895 0
897 11 -896 0
898 12 -897 0
899 -13 -898 0
900 14 -899 0
-901 894 0
-901 -900 0
902 -6 -7 0
903 9 -902 0
904 10 -903 0
905 11 -904 0
906 -12 -905 0
907 -14 -906 0
-908 901 0
-908 -907 0
909 -6 -7 0
910 9 -909 0
911 10 -910 0
912 -11 -911 0
913 12 -912 0
914 13 -913 0
915 14 -914 0
-916 908 0
-916 -915 0
917 -6 -7 0
918 -9 -917 0
919 12 -918 0
920 -13 -919 0
921 -14 -920 0
-922 916 0
-922 -921 0
923 -6 -7 0
924 -9 -923 0
925 11 -924 0
926 -12 -925 0
927 14 -926 0
-928 922 0
-928 -927 0
929 -6 -7 0
930 -9 -929 0
931 10 -930 0
932 -11 -931 0
933 -14 -932 0
-934 928 0
-934 -933 0
935 -6 -7 0
936 -9 -935 0
937 -10 -936 0
938 11 -937 0
939 13 -938 0
940 14 -939 0
-941 934 0
-941 -940 0
942 -6 -7 0
943 8 -942 0
944 -10 -943 0
945 11 -944 0
946 -12 -945 0
947 14 -946 0
-948 941 0
-948 -947 0
949 -6 -7 0
950 8 -949 0
951 9 -950 0
952 10 -951 0
953 -12 -952 0
954 13 -953 0
955 -14 -954 0
-956 948 0
-956 -955 0
957 -6 -7 0
958 8 -957 0
959 9 -958 0
960 -10 -959 0
961 11 -960 0
962 -13 -961 0
963 14 -962 0
-964 956 0
-964 -963 0
965 -6 -7 0
966 8 -965 0
967 9 -966 0
968 -10 -967 0
969 -11 -968 0
970 12 -969 0
971 -14 -970 0
-972 964 0
-972 -971 0
973 -6 -7 0
974 -8 -973 0
975 9 -974 0
976 12 -975 0
977 -13 -976 0
978 14 -977 0
-979 972 0
-979 -978 0
980 -6 -7 0
981 -8 -980 0
982 9 -981 0
983 -10 -982 0
984 13 -983 0
985 -14 -984 0
-986 979 0
-986 -985 0
987 -6 -7 0
988 -8 -987 0
989 -9 -988 0
990 -10 -989 0
991 13 -990 0
992 14 -991 0
-993 986 0
-993 -992 0
-994 1 0
-994 993 0
-995 1 0
-995 1 0
-996 994 0
-996 995 0
-997 -37 0
-997 996 0
997 0
