p cnf 64 138
1 0
-14 -2 0
-14 -3 0
14 2 3 0
-15 -5 4 0
-15 5 -4 0
15 -5 -4 0
15 5 4 0
-16 -14 15 0
-16 14 -2 0
16 -14 -15 0
16 14 2 0
-17 -16 -9 0
-17 16 9 0
-18 1 0
-18 17 0
-19 -14 -4 0
-19 14 -3 0
19 -14 4 0
19 14 3 0
-20 -19 -10 0
-20 19 10 0
-21 18 0
-21 20 0
-22 -14 -6 0
-22 14 -2 0
22 -14 6 0
22 14 2 0
-23 -22 -11 0
-23 22 11 0
-24 21 0
-24 23 0
-25 -14 -7 0
-25 14 -3 0
25 -14 7 0
25 14 3 0
-26 -25 -12 0
-26 25 12 0
-27 24 0
-27 26 0
-28 -6 0
-28 -7 0
28 6 7 0
-29 15 -6 0
-29 -15 6 0
29 15 6 0
29 -15 -6 0
-30 -7 -4 0
-30 7 4 0
30 -7 4 0
30 7 -4 0
-31 -29 0
-31 -30 0
31 29 30 0
-32 -28 0
-32 31 0
32 28 -31 0
-33 14 0
-33 -32 0
33 -14 32 0
-34 -8 0
-34 33 0
34 8 -33 0
-35 34 -13 0
-35 -34 13 0
-36 27 0
-36 35 0
-37 1 0
-37 36 0
-38 1 0
-38 37 0
-39 1 0
-39 38 0
-40 -2 0
-40 -3 0
40 2 3 0
-41 -5 4 0
-41 5 -4 0
41 -5 -4 0
41 5 4 0
-42 -40 41 0
-42 40 -2 0
42 -40 -41 0
42 40 2 0
43 -42 9 0
43 42 -9 0
44 -1 -43 0
-45 -40 -4 0
-45 40 -3 0
45 -40 4 0
45 40 3 0
46 -45 10 0
46 45 -10 0
47 -44 -46 0
-48 -40 -6 0
-48 40 -2 0
48 -40 6 0
48 40 2 0
49 -48 11 0
49 48 -11 0
50 -47 -49 0
-51 -40 -7 0
-51 40 -3 0
51 -40 7 0
51 40 3 0
52 -51 12 0
52 51 -12 0
53 -50 -52 0
-54 -6 0
-54 -7 0
54 6 7 0
-55 41 -6 0
-55 -41 6 0
55 41 6 0
55 -41 -6 0
-56 -7 -4 0
-56 7 4 0
56 -7 4 0
56 7 -4 0
-57 -55 0
-57 -56 0
57 55 56 0
-58 -54 0
-58 57 0
58 54 -57 0
-59 40 0
-59 -58 0
59 -40 58 0
-60 -8 0
-60 59 0
60 8 -59 0
61 60 13 0
61 -60 -13 0
62 -53 -61 0
63 -1 -62 0
-64 39 0
-64 -63 0
64 0
