p cnf 588 1529
1 0
-68 -2 0
-68 -3 0
68 2 3 0
-69 -4 0
-69 68 0
69 4 -68 0
-70 -5 0
-70 69 0
70 5 -69 0
-71 -6 0
-71 70 0
71 6 -70 0
-72 11 -7 0
-72 -11 7 0
72 11 7 0
72 -11 -7 0
-73 -71 72 0
-73 71 -2 0
73 -71 -72 0
73 71 2 0
-74 -71 -7 0
-74 71 -3 0
74 -71 7 0
74 71 3 0
-75 -71 -8 0
-75 71 -4 0
75 -71 8 0
75 71 4 0
-76 -71 -9 0
-76 71 -5 0
76 -71 9 0
76 71 5 0
-77 -71 -10 0
-77 71 -6 0
77 -71 10 0
77 71 6 0
-78 -71 -12 0
-78 71 -2 0
78 -71 12 0
78 71 2 0
-79 -71 -13 0
-79 71 -3 0
79 -71 13 0
79 71 3 0
-80 -71 -14 0
-80 71 -4 0
80 -71 14 0
80 71 4 0
-81 -71 -15 0
-81 71 -5 0
81 -71 15 0
81 71 5 0
-82 -71 -16 0
-82 71 -6 0
82 -71 16 0
82 71 6 0
-83 -12 0
-83 -13 0
83 12 13 0
-84 -14 0
-84 83 0
84 14 -83 0
-85 -15 0
-85 84 0
85 15 -84 0
-86 -16 0
-86 85 0
86 16 -85 0
-87 72 12 0
-87 -72 -12 0
87 72 -12 0
87 -72 12 0
-88 13 -7 0
-88 -13 7 0
88 13 7 0
88 -13 -7 0
-89 87 0
-89 88 0
89 -87 -88 0
-90 14 -8 0
-90 -14 8 0
90 14 8 0
90 -14 -8 0
-91 89 0
-91 90 0
91 -89 -90 0
-92 15 -9 0
-92 -15 9 0
92 15 9 0
92 -15 -9 0
-93 91 0
-93 92 0
93 -91 -92 0
-94 16 -10 0
-94 -16 10 0
94 16 10 0
94 -16 -10 0
-95 93 0
-95 94 0
95 -93 -94 0
-96 -86 0
-96 95 0
96 86 -95 0
-97 -17 0
-97 71 0
97 17 -71 0
-98 -96 0
-98 97 0
98 96 -97 0
99 -17 -71 0
100 -96 -99 0
101 7 -72 0
102 8 -101 0
103 9 -102 0
104 10 -103 0
105 86 -104 0
-106 -100 0
-106 -105 0
-107 -18 0
-107 -19 0
-108 -20 0
-108 107 0
-109 -21 0
-109 108 0
-110 -22 0
-110 109 0
-111 -23 0
-111 110 0
-112 -7 0
-112 -8 0
-113 -9 0
-113 112 0
-114 -10 0
-114 113 0
-115 -11 0
-115 114 0
-116 86 0
-116 115 0
-117 111 0
-117 116 0
-118 18 -16 0
-118 -18 -15 0
118 18 16 0
118 -18 15 0
-119 16 -12 0
-119 -16 12 0
119 16 12 0
119 -16 -12 0
-120 18 -12 0
-120 -18 119 0
120 18 12 0
120 -18 -119 0
-121 18 -15 0
-121 -18 -14 0
121 18 15 0
121 -18 14 0
-122 -121 120 0
-122 121 -120 0
122 -121 -120 0
122 121 120 0
-123 122 -118 0
-123 -122 118 0
123 122 118 0
123 -122 -118 0
-124 19 120 0
-124 -19 123 0
124 19 -120 0
124 -19 -123 0
-125 18 -14 0
-125 -18 -13 0
125 18 14 0
125 -18 13 0
-126 19 118 0
-126 -19 125 0
126 19 -118 0
126 -19 -125 0
-127 20 126 0
-127 -20 124 0
127 20 -126 0
127 -20 -124 0
-128 -126 124 0
-128 126 -124 0
128 -126 -124 0
128 126 124 0
-129 18 -13 0
-129 -18 -12 0
129 18 13 0
129 -18 12 0
-130 19 121 0
-130 -19 129 0
130 19 -121 0
130 -19 -129 0
-131 20 130 0
-131 -20 128 0
131 20 -130 0
131 -20 -128 0
-132 -130 124 0
-132 130 -124 0
132 -130 -124 0
132 130 124 0
-133 132 -126 0
-133 -132 126 0
133 132 126 0
133 -132 -126 0
-134 19 125 0
-134 -19 120 0
134 19 -125 0
134 -19 -120 0
-135 20 134 0
-135 -20 133 0
135 20 -134 0
135 -20 -133 0
-136 120 -118 0
-136 -120 118 0
136 120 118 0
136 -120 -118 0
-137 19 129 0
-137 -19 136 0
137 19 -129 0
137 -19 -136 0
-138 -137 124 0
-138 137 -124 0
138 -137 -124 0
138 137 124 0
-139 138 -134 0
-139 -138 134 0
139 138 134 0
139 -138 -134 0
-140 139 -130 0
-140 -139 130 0
140 139 130 0
140 -139 -130 0
-141 140 -126 0
-141 -140 126 0
141 140 126 0
141 -140 -126 0
-142 20 124 0
-142 -20 141 0
142 20 -124 0
142 -20 -141 0
-143 -134 124 0
-143 134 -124 0
143 -134 -124 0
143 134 124 0
-144 143 -130 0
-144 -143 130 0
144 143 130 0
144 -143 -130 0
-145 144 -126 0
-145 -144 126 0
145 144 126 0
145 -144 -126 0
-146 20 137 0
-146 -20 145 0
146 20 -137 0
146 -20 -145 0
-147 -146 142 0
-147 146 -142 0
147 -146 -142 0
147 146 142 0
-148 147 -135 0
-148 -147 135 0
148 147 135 0
148 -147 -135 0
-149 148 -131 0
-149 -148 131 0
149 148 131 0
149 -148 -131 0
-150 149 -127 0
-150 -149 127 0
150 149 127 0
150 -149 -127 0
-151 21 127 0
-151 -21 150 0
151 21 -127 0
151 -21 -150 0
-152 147 -131 0
-152 -147 131 0
152 147 131 0
152 -147 -131 0
-153 21 142 0
-153 -21 152 0
153 21 -142 0
153 -21 -152 0
-154 146 -135 0
-154 -146 135 0
154 146 135 0
154 -146 -135 0
-155 154 -127 0
-155 -154 127 0
155 154 127 0
155 -154 -127 0
-156 21 146 0
-156 -21 155 0
156 21 -146 0
156 -21 -155 0
-157 -156 153 0
-157 156 -153 0
157 -156 -153 0
157 156 153 0
-158 157 -151 0
-158 -157 151 0
158 157 151 0
158 -157 -151 0
-159 22 151 0
-159 -22 158 0
159 22 -151 0
159 -22 -158 0
-160 21 135 0
-160 -21 149 0
160 21 -135 0
160 -21 -149 0
-161 -160 156 0
-161 160 -156 0
161 -160 -156 0
161 160 156 0
-162 22 156 0
-162 -22 161 0
162 22 -156 0
162 -22 -161 0
-163 154 -131 0
-163 -154 131 0
163 154 131 0
163 -154 -131 0
-164 163 -127 0
-164 -163 127 0
164 163 127 0
164 -163 -127 0
-165 21 131 0
-165 -21 164 0
165 21 -131 0
165 -21 -164 0
-166 -165 160 0
-166 165 -160 0
166 -165 -160 0
166 165 160 0
-167 22 160 0
-167 -22 166 0
167 22 -160 0
167 -22 -166 0
-168 -167 162 0
-168 167 -162 0
168 -167 -162 0
168 167 162 0
-169 168 -159 0
-169 -168 159 0
169 168 159 0
169 -168 -159 0
-170 23 159 0
-170 -23 169 0
170 23 -159 0
170 -23 -169 0
-171 -170 -11 0
-171 170 11 0
-172 165 -151 0
-172 -165 151 0
172 165 151 0
172 -165 -151 0
-173 22 165 0
-173 -22 172 0
173 22 -165 0
173 -22 -172 0
-174 22 153 0
-174 -22 157 0
174 22 -153 0
174 -22 -157 0
-175 174 -162 0
-175 -174 162 0
175 174 162 0
175 -174 -162 0
-176 175 -173 0
-176 -175 173 0
176 175 173 0
176 -175 -173 0
-177 23 173 0
-177 -23 176 0
177 23 -173 0
177 -23 -176 0
-178 -177 -10 0
-178 177 10 0
-179 167 -159 0
-179 -167 159 0
179 167 159 0
179 -167 -159 0
-180 23 167 0
-180 -23 179 0
180 23 -167 0
180 -23 -179 0
-181 -180 -9 0
-181 180 9 0
-182 -173 162 0
-182 173 -162 0
182 -173 -162 0
182 173 162 0
-183 23 162 0
-183 -23 182 0
183 23 -162 0
183 -23 -182 0
-184 -183 -8 0
-184 183 8 0
-185 174 -167 0
-185 -174 167 0
185 174 167 0
185 -174 -167 0
-186 23 174 0
-186 -23 185 0
186 23 -174 0
186 -23 -185 0
-187 -186 -7 0
-187 186 7 0
-188 18 -17 0
-188 -18 17 0
-189 14 -12 0
-189 -14 12 0
189 14 12 0
189 -14 -12 0
-190 189 15 0
-190 -189 -15 0
190 189 -15 0
190 -189 15 0
-191 13 -12 0
-191 -13 12 0
191 13 12 0
191 -13 -12 0
-192 191 14 0
-192 -191 -14 0
192 191 -14 0
192 -191 14 0
-193 192 16 0
-193 -192 -16 0
193 192 -16 0
193 -192 16 0
-194 190 0
-194 193 0
194 -190 -193 0
-195 15 -12 0
-195 -15 12 0
195 15 12 0
195 -15 -12 0
-196 192 0
-196 195 0
196 -192 -195 0
-197 16 -13 0
-197 -16 13 0
197 16 13 0
197 -16 -13 0
-198 196 0
-198 197 0
198 -196 -197 0
-199 -194 0
-199 -198 0
199 194 198 0
-200 -22 0
-200 -23 0
-201 199 0
-201 200 0
-202 199 -22 0
-202 -199 22 0
-203 -23 0
-203 202 0
-204 -21 0
-204 203 0
-205 -20 0
-205 204 0
-206 -198 0
-206 205 0
207 201 206 0
-208 -198 194 0
-208 198 -194 0
208 -198 -194 0
208 198 194 0
-209 -198 -20 0
-209 198 20 0
-210 204 0
-210 209 0
-211 -19 0
-211 210 0
-212 -208 0
-212 211 0
213 -207 212 0
-214 -208 -19 0
-214 208 19 0
-215 210 0
-215 214 0
-216 -18 0
-216 215 0
217 -213 216 0
-218 -86 0
-218 -217 0
-219 188 0
-219 218 0
-220 187 0
-220 219 0
-221 184 0
-221 220 0
-222 181 0
-222 221 0
-223 178 0
-223 222 0
-224 171 0
-224 223 0
225 117 224 0
-226 106 0
-226 -225 0
-227 1 0
-227 226 0
-228 -73 -29 0
-228 73 29 0
-229 1 0
-229 228 0
-230 -74 -30 0
-230 74 30 0
-231 229 0
-231 230 0
-232 -75 -31 0
-232 75 31 0
-233 231 0
-233 232 0
-234 -76 -32 0
-234 76 32 0
-235 233 0
-235 234 0
-236 -77 -33 0
-236 77 33 0
-237 235 0
-237 236 0
-238 -78 -34 0
-238 78 34 0
-239 237 0
-239 238 0
-240 -79 -35 0
-240 79 35 0
-241 239 0
-241 240 0
-242 -80 -36 0
-242 80 36 0
-243 241 0
-243 242 0
-244 -81 -37 0
-244 81 37 0
-245 243 0
-245 244 0
-246 -82 -38 0
-246 82 38 0
-247 245 0
-247 246 0
-248 98 -39 0
-248 -98 39 0
-249 247 0
-249 248 0
-250 -86 0
-250 87 0
250 86 -87 0
-251 88 0
-251 250 0
251 -88 -250 0
-252 90 0
-252 251 0
252 -90 -251 0
-253 92 0
-253 252 0
253 -92 -252 0
-254 94 0
-254 253 0
254 -94 -253 0
-255 71 0
-255 -86 0
255 -71 86 0
-256 -254 0
-256 255 0
256 254 -255 0
-257 -18 0
-257 256 0
257 18 -256 0
-258 257 -40 0
-258 -257 40 0
-259 249 0
-259 258 0
-260 -19 18 0
-260 19 -18 0
260 -19 -18 0
260 19 18 0
-261 256 0
-261 -260 0
261 -256 260 0
-262 261 -41 0
-262 -261 41 0
-263 259 0
-263 262 0
-264 18 0
-264 19 0
264 -18 -19 0
-265 264 -20 0
-265 -264 20 0
265 264 20 0
265 -264 -20 0
-266 256 0
-266 -265 0
266 -256 265 0
-267 266 -42 0
-267 -266 42 0
-268 263 0
-268 267 0
-269 20 0
-269 264 0
269 -20 -264 0
-270 269 -21 0
-270 -269 21 0
270 269 21 0
270 -269 -21 0
-271 256 0
-271 -270 0
271 -256 270 0
-272 271 -43 0
-272 -271 43 0
-273 268 0
-273 272 0
-274 21 0
-274 269 0
274 -21 -269 0
-275 274 -22 0
-275 -274 22 0
275 274 22 0
275 -274 -22 0
-276 256 0
-276 -275 0
276 -256 275 0
-277 276 -44 0
-277 -276 44 0
-278 273 0
-278 277 0
-279 22 0
-279 274 0
279 -22 -274 0
-280 279 -23 0
-280 -279 23 0
280 279 23 0
280 -279 -23 0
-281 256 0
-281 -280 0
281 -256 280 0
-282 281 -45 0
-282 -281 45 0
-283 278 0
-283 282 0
-284 -34 0
-284 -35 0
284 34 35 0
-285 -36 0
-285 284 0
285 36 -284 0
-286 -37 0
-286 285 0
286 37 -285 0
-287 -38 0
-287 286 0
287 38 -286 0
-288 33 -29 0
-288 -33 29 0
288 33 29 0
288 -33 -29 0
289 288 -34 0
289 -288 34 0
290 35 29 0
290 -35 -29 0
291 -289 -290 0
292 36 30 0
292 -36 -30 0
293 -291 -292 0
294 37 31 0
294 -37 -31 0
295 -293 -294 0
296 38 32 0
296 -38 -32 0
297 -295 -296 0
298 287 -297 0
299 24 25 0
300 26 -299 0
301 27 -300 0
302 28 -301 0
303 -39 -302 0
304 -298 -303 0
305 29 -288 0
306 30 -305 0
307 31 -306 0
308 32 -307 0
309 287 -308 0
-310 -304 0
-310 -309 0
-311 -40 0
-311 -41 0
-312 -42 0
-312 311 0
-313 -43 0
-313 312 0
-314 -44 0
-314 313 0
-315 -45 0
-315 314 0
-316 -29 0
-316 -30 0
-317 -31 0
-317 316 0
-318 -32 0
-318 317 0
-319 -33 0
-319 318 0
-320 287 0
-320 319 0
-321 315 0
-321 320 0
-322 40 -38 0
-322 -40 -37 0
322 40 38 0
322 -40 37 0
-323 38 -34 0
-323 -38 34 0
323 38 34 0
323 -38 -34 0
-324 40 -34 0
-324 -40 323 0
324 40 34 0
324 -40 -323 0
-325 40 -37 0
-325 -40 -36 0
325 40 37 0
325 -40 36 0
-326 -325 324 0
-326 325 -324 0
326 -325 -324 0
326 325 324 0
-327 326 -322 0
-327 -326 322 0
327 326 322 0
327 -326 -322 0
-328 41 324 0
-328 -41 327 0
328 41 -324 0
328 -41 -327 0
-329 40 -36 0
-329 -40 -35 0
329 40 36 0
329 -40 35 0
-330 41 322 0
-330 -41 329 0
330 41 -322 0
330 -41 -329 0
-331 42 330 0
-331 -42 328 0
331 42 -330 0
331 -42 -328 0
-332 -330 328 0
-332 330 -328 0
332 -330 -328 0
332 330 328 0
-333 40 -35 0
-333 -40 -34 0
333 40 35 0
333 -40 34 0
-334 41 325 0
-334 -41 333 0
334 41 -325 0
334 -41 -333 0
-335 42 334 0
-335 -42 332 0
335 42 -334 0
335 -42 -332 0
-336 -334 328 0
-336 334 -328 0
336 -334 -328 0
336 334 328 0
-337 336 -330 0
-337 -336 330 0
337 336 330 0
337 -336 -330 0
-338 41 329 0
-338 -41 324 0
338 41 -329 0
338 -41 -324 0
-339 42 338 0
-339 -42 337 0
339 42 -338 0
339 -42 -337 0
-340 324 -322 0
-340 -324 322 0
340 324 322 0
340 -324 -322 0
-341 41 333 0
-341 -41 340 0
341 41 -333 0
341 -41 -340 0
-342 -341 328 0
-342 341 -328 0
342 -341 -328 0
342 341 328 0
-343 342 -338 0
-343 -342 338 0
343 342 338 0
343 -342 -338 0
-344 343 -334 0
-344 -343 334 0
344 343 334 0
344 -343 -334 0
-345 344 -330 0
-345 -344 330 0
345 344 330 0
345 -344 -330 0
-346 42 328 0
-346 -42 345 0
346 42 -328 0
346 -42 -345 0
-347 -338 328 0
-347 338 -328 0
347 -338 -328 0
347 338 328 0
-348 347 -334 0
-348 -347 334 0
348 347 334 0
348 -347 -334 0
-349 348 -330 0
-349 -348 330 0
349 348 330 0
349 -348 -330 0
-350 42 341 0
-350 -42 349 0
350 42 -341 0
350 -42 -349 0
-351 -350 346 0
-351 350 -346 0
351 -350 -346 0
351 350 346 0
-352 351 -339 0
-352 -351 339 0
352 351 339 0
352 -351 -339 0
-353 352 -335 0
-353 -352 335 0
353 352 335 0
353 -352 -335 0
-354 353 -331 0
-354 -353 331 0
354 353 331 0
354 -353 -331 0
-355 43 331 0
-355 -43 354 0
355 43 -331 0
355 -43 -354 0
-356 351 -335 0
-356 -351 335 0
356 351 335 0
356 -351 -335 0
-357 43 346 0
-357 -43 356 0
357 43 -346 0
357 -43 -356 0
-358 350 -339 0
-358 -350 339 0
358 350 339 0
358 -350 -339 0
-359 358 -331 0
-359 -358 331 0
359 358 331 0
359 -358 -331 0
-360 43 350 0
-360 -43 359 0
360 43 -350 0
360 -43 -359 0
-361 -360 357 0
-361 360 -357 0
361 -360 -357 0
361 360 357 0
-362 361 -355 0
-362 -361 355 0
362 361 355 0
362 -361 -355 0
-363 44 355 0
-363 -44 362 0
363 44 -355 0
363 -44 -362 0
-364 43 339 0
-364 -43 353 0
364 43 -339 0
364 -43 -353 0
-365 -364 360 0
-365 364 -360 0
365 -364 -360 0
365 364 360 0
-366 44 360 0
-366 -44 365 0
366 44 -360 0
366 -44 -365 0
-367 358 -335 0
-367 -358 335 0
367 358 335 0
367 -358 -335 0
-368 367 -331 0
-368 -367 331 0
368 367 331 0
368 -367 -331 0
-369 43 335 0
-369 -43 368 0
369 43 -335 0
369 -43 -368 0
-370 -369 364 0
-370 369 -364 0
370 -369 -364 0
370 369 364 0
-371 44 364 0
-371 -44 370 0
371 44 -364 0
371 -44 -370 0
-372 -371 366 0
-372 371 -366 0
372 -371 -366 0
372 371 366 0
-373 372 -363 0
-373 -372 363 0
373 372 363 0
373 -372 -363 0
-374 45 363 0
-374 -45 373 0
374 45 -363 0
374 -45 -373 0
-375 -374 -33 0
-375 374 33 0
-376 369 -355 0
-376 -369 355 0
376 369 355 0
376 -369 -355 0
-377 44 369 0
-377 -44 376 0
377 44 -369 0
377 -44 -376 0
-378 44 357 0
-378 -44 361 0
378 44 -357 0
378 -44 -361 0
-379 378 -366 0
-379 -378 366 0
379 378 366 0
379 -378 -366 0
-380 379 -377 0
-380 -379 377 0
380 379 377 0
380 -379 -377 0
-381 45 377 0
-381 -45 380 0
381 45 -377 0
381 -45 -380 0
-382 -381 -32 0
-382 381 32 0
-383 371 -363 0
-383 -371 363 0
383 371 363 0
383 -371 -363 0
-384 45 371 0
-384 -45 383 0
384 45 -371 0
384 -45 -383 0
-385 -384 -31 0
-385 384 31 0
-386 -377 366 0
-386 377 -366 0
386 -377 -366 0
386 377 366 0
-387 45 366 0
-387 -45 386 0
387 45 -366 0
387 -45 -386 0
-388 -387 -30 0
-388 387 30 0
-389 378 -371 0
-389 -378 371 0
389 378 371 0
389 -378 -371 0
-390 45 378 0
-390 -45 389 0
390 45 -378 0
390 -45 -389 0
-391 -390 -29 0
-391 390 29 0
-392 40 -39 0
-392 -40 39 0
-393 36 -34 0
-393 -36 34 0
393 36 34 0
393 -36 -34 0
-394 393 37 0
-394 -393 -37 0
394 393 -37 0
394 -393 37 0
-395 35 -34 0
-395 -35 34 0
395 35 34 0
395 -35 -34 0
-396 395 36 0
-396 -395 -36 0
396 395 -36 0
396 -395 36 0
-397 396 38 0
-397 -396 -38 0
397 396 -38 0
397 -396 38 0
-398 394 0
-398 397 0
398 -394 -397 0
-399 37 -34 0
-399 -37 34 0
399 37 34 0
399 -37 -34 0
-400 396 0
-400 399 0
400 -396 -399 0
-401 38 -35 0
-401 -38 35 0
401 38 35 0
401 -38 -35 0
-402 400 0
-402 401 0
402 -400 -401 0
-403 -398 0
-403 -402 0
403 398 402 0
-404 -44 0
-404 -45 0
-405 403 0
-405 404 0
-406 403 -44 0
-406 -403 44 0
-407 -45 0
-407 406 0
-408 -43 0
-408 407 0
-409 -42 0
-409 408 0
-410 -402 0
-410 409 0
411 405 410 0
-412 -402 398 0
-412 402 -398 0
412 -402 -398 0
412 402 398 0
-413 -402 -42 0
-413 402 42 0
-414 408 0
-414 413 0
-415 -41 0
-415 414 0
-416 -412 0
-416 415 0
417 -411 416 0
-418 -412 -41 0
-418 412 41 0
-419 414 0
-419 418 0
-420 -40 0
-420 419 0
421 -417 420 0
-422 -287 0
-422 -421 0
-423 392 0
-423 422 0
-424 391 0
-424 423 0
-425 388 0
-425 424 0
-426 385 0
-426 425 0
-427 382 0
-427 426 0
-428 375 0
-428 427 0
429 321 428 0
-430 310 0
-430 -429 0
-431 1 0
-431 430 0
-432 -56 0
-432 -57 0
432 56 57 0
-433 -58 0
-433 432 0
433 58 -432 0
-434 -59 0
-434 433 0
434 59 -433 0
-435 -60 0
-435 434 0
435 60 -434 0
-436 55 -51 0
-436 -55 51 0
436 55 51 0
436 -55 -51 0
437 436 -56 0
437 -436 56 0
438 57 51 0
438 -57 -51 0
439 -437 -438 0
440 58 52 0
440 -58 -52 0
441 -439 -440 0
442 59 53 0
442 -59 -53 0
443 -441 -442 0
444 60 54 0
444 -60 -54 0
445 -443 -444 0
446 435 -445 0
447 46 47 0
448 48 -447 0
449 49 -448 0
450 50 -449 0
451 -61 -450 0
452 -446 -451 0
453 51 -436 0
454 52 -453 0
455 53 -454 0
456 54 -455 0
457 435 -456 0
-458 -452 0
-458 -457 0
-459 -62 0
-459 -63 0
-460 -64 0
-460 459 0
-461 -65 0
-461 460 0
-462 -66 0
-462 461 0
-463 -67 0
-463 462 0
-464 -51 0
-464 -52 0
-465 -53 0
-465 464 0
-466 -54 0
-466 465 0
-467 -55 0
-467 466 0
-468 435 0
-468 467 0
-469 463 0
-469 468 0
-470 62 -60 0
-470 -62 -59 0
470 62 60 0
470 -62 59 0
-471 60 -56 0
-471 -60 56 0
471 60 56 0
471 -60 -56 0
-472 62 -56 0
-472 -62 471 0
472 62 56 0
472 -62 -471 0
-473 62 -59 0
-473 -62 -58 0
473 62 59 0
473 -62 58 0
-474 -473 472 0
-474 473 -472 0
474 -473 -472 0
474 473 472 0
-475 474 -470 0
-475 -474 470 0
475 474 470 0
475 -474 -470 0
-476 63 472 0
-476 -63 475 0
476 63 -472 0
476 -63 -475 0
-477 62 -58 0
-477 -62 -57 0
477 62 58 0
477 -62 57 0
-478 63 470 0
-478 -63 477 0
478 63 -470 0
478 -63 -477 0
-479 64 478 0
-479 -64 476 0
479 64 -478 0
479 -64 -476 0
-480 -478 476 0
-480 478 -476 0
480 -478 -476 0
480 478 476 0
-481 62 -57 0
-481 -62 -56 0
481 62 57 0
481 -62 56 0
-482 63 473 0
-482 -63 481 0
482 63 -473 0
482 -63 -481 0
-483 64 482 0
-483 -64 480 0
483 64 -482 0
483 -64 -480 0
-484 -482 476 0
-484 482 -476 0
484 -482 -476 0
484 482 476 0
-485 484 -478 0
-485 -484 478 0
485 484 478 0
485 -484 -478 0
-486 63 477 0
-486 -63 472 0
486 63 -477 0
486 -63 -472 0
-487 64 486 0
-487 -64 485 0
487 64 -486 0
487 -64 -485 0
-488 472 -470 0
-488 -472 470 0
488 472 470 0
488 -472 -470 0
-489 63 481 0
-489 -63 488 0
489 63 -481 0
489 -63 -488 0
-490 -489 476 0
-490 489 -476 0
490 -489 -476 0
490 489 476 0
-491 490 -486 0
-491 -490 486 0
491 490 486 0
491 -490 -486 0
-492 491 -482 0
-492 -491 482 0
492 491 482 0
492 -491 -482 0
-493 492 -478 0
-493 -492 478 0
493 492 478 0
493 -492 -478 0
-494 64 476 0
-494 -64 493 0
494 64 -476 0
494 -64 -493 0
-495 -486 476 0
-495 486 -476 0
495 -486 -476 0
495 486 476 0
-496 495 -482 0
-496 -495 482 0
496 495 482 0
496 -495 -482 0
-497 496 -478 0
-497 -496 478 0
497 496 478 0
497 -496 -478 0
-498 64 489 0
-498 -64 497 0
498 64 -489 0
498 -64 -497 0
-499 -498 494 0
-499 498 -494 0
499 -498 -494 0
499 498 494 0
-500 499 -487 0
-500 -499 487 0
500 499 487 0
500 -499 -487 0
-501 500 -483 0
-501 -500 483 0
501 500 483 0
501 -500 -483 0
-502 501 -479 0
-502 -501 479 0
502 501 479 0
502 -501 -479 0
-503 65 479 0
-503 -65 502 0
503 65 -479 0
503 -65 -502 0
-504 499 -483 0
-504 -499 483 0
504 499 483 0
504 -499 -483 0
-505 65 494 0
-505 -65 504 0
505 65 -494 0
505 -65 -504 0
-506 498 -487 0
-506 -498 487 0
506 498 487 0
506 -498 -487 0
-507 506 -479 0
-507 -506 479 0
507 506 479 0
507 -506 -479 0
-508 65 498 0
-508 -65 507 0
508 65 -498 0
508 -65 -507 0
-509 -508 505 0
-509 508 -505 0
509 -508 -505 0
509 508 505 0
-510 509 -503 0
-510 -509 503 0
510 509 503 0
510 -509 -503 0
-511 66 503 0
-511 -66 510 0
511 66 -503 0
511 -66 -510 0
-512 65 487 0
-512 -65 501 0
512 65 -487 0
512 -65 -501 0
-513 -512 508 0
-513 512 -508 0
513 -512 -508 0
513 512 508 0
-514 66 508 0
-514 -66 513 0
514 66 -508 0
514 -66 -513 0
-515 506 -483 0
-515 -506 483 0
515 506 483 0
515 -506 -483 0
-516 515 -479 0
-516 -515 479 0
516 515 479 0
516 -515 -479 0
-517 65 483 0
-517 -65 516 0
517 65 -483 0
517 -65 -516 0
-518 -517 512 0
-518 517 -512 0
518 -517 -512 0
518 517 512 0
-519 66 512 0
-519 -66 518 0
519 66 -512 0
519 -66 -518 0
-520 -519 514 0
-520 519 -514 0
520 -519 -514 0
520 519 514 0
-521 520 -511 0
-521 -520 511 0
521 520 511 0
521 -520 -511 0
-522 67 511 0
-522 -67 521 0
522 67 -511 0
522 -67 -521 0
-523 -522 -55 0
-523 522 55 0
-524 517 -503 0
-524 -517 503 0
524 517 503 0
524 -517 -503 0
-525 66 517 0
-525 -66 524 0
525 66 -517 0
525 -66 -524 0
-526 66 505 0
-526 -66 509 0
526 66 -505 0
526 -66 -509 0
-527 526 -514 0
-527 -526 514 0
527 526 514 0
527 -526 -514 0
-528 527 -525 0
-528 -527 525 0
528 527 525 0
528 -527 -525 0
-529 67 525 0
-529 -67 528 0
529 67 -525 0
529 -67 -528 0
-530 -529 -54 0
-530 529 54 0
-531 519 -511 0
-531 -519 511 0
531 519 511 0
531 -519 -511 0
-532 67 519 0
-532 -67 531 0
532 67 -519 0
532 -67 -531 0
-533 -532 -53 0
-533 532 53 0
-534 -525 514 0
-534 525 -514 0
534 -525 -514 0
534 525 514 0
-535 67 514 0
-535 -67 534 0
535 67 -514 0
535 -67 -534 0
-536 -535 -52 0
-536 535 52 0
-537 526 -519 0
-537 -526 519 0
537 526 519 0
537 -526 -519 0
-538 67 526 0
-538 -67 537 0
538 67 -526 0
538 -67 -537 0
-539 -538 -51 0
-539 538 51 0
-540 62 -61 0
-540 -62 61 0
-541 58 -56 0
-541 -58 56 0
541 58 56 0
541 -58 -56 0
-542 541 59 0
-542 -541 -59 0
542 541 -59 0
542 -541 59 0
-543 57 -56 0
-543 -57 56 0
543 57 56 0
543 -57 -56 0
-544 543 58 0
-544 -543 -58 0
544 543 -58 0
544 -543 58 0
-545 544 60 0
-545 -544 -60 0
545 544 -60 0
545 -544 60 0
-546 542 0
-546 545 0
546 -542 -545 0
-547 59 -56 0
-547 -59 56 0
547 59 56 0
547 -59 -56 0
-548 544 0
-548 547 0
548 -544 -547 0
-549 60 -57 0
-549 -60 57 0
549 60 57 0
549 -60 -57 0
-550 548 0
-550 549 0
550 -548 -549 0
-551 -546 0
-551 -550 0
551 546 550 0
-552 -66 0
-552 -67 0
-553 551 0
-553 552 0
-554 551 -66 0
-554 -551 66 0
-555 -67 0
-555 554 0
-556 -65 0
-556 555 0
-557 -64 0
-557 556 0
-558 -550 0
-558 557 0
559 553 558 0
-560 -550 546 0
-560 550 -546 0
560 -550 -546 0
560 550 546 0
-561 -550 -64 0
-561 550 64 0
-562 556 0
-562 561 0
-563 -63 0
-563 562 0
-564 -560 0
-564 563 0
565 -559 564 0
-566 -560 -63 0
-566 560 63 0
-567 562 0
-567 566 0
-568 -62 0
-568 567 0
569 -565 568 0
-570 -435 0
-570 -569 0
-571 540 0
-571 570 0
-572 539 0
-572 571 0
-573 536 0
-573 572 0
-574 533 0
-574 573 0
-575 530 0
-575 574 0
-576 523 0
-576 575 0
577 469 576 0
-578 458 0
-578 -577 0
-579 1 0
-579 578 0
-580 1 0
-580 1 0
-581 227 0
-581 580 0
-582 1 0
-582 581 0
-583 431 0
-583 582 0
-584 1 0
-584 583 0
-585 579 0
-585 584 0
-586 283 0
-586 585 0
-587 1 0
-587 586 0
-588 -1 0
-588 587 0
588 0
