p cnf 417 1095
1 0
-46 -2 0
-46 -3 0
46 2 3 0
-47 -4 0
-47 46 0
47 4 -46 0
-48 -5 0
-48 47 0
48 5 -47 0
-49 -6 0
-49 48 0
49 6 -48 0
-50 11 -7 0
-50 -11 7 0
50 11 7 0
50 -11 -7 0
-51 -49 50 0
-51 49 -2 0
51 -49 -50 0
51 49 2 0
-52 -49 -7 0
-52 49 -3 0
52 -49 7 0
52 49 3 0
-53 -49 -8 0
-53 49 -4 0
53 -49 8 0
53 49 4 0
-54 -49 -9 0
-54 49 -5 0
54 -49 9 0
54 49 5 0
-55 -49 -10 0
-55 49 -6 0
55 -49 10 0
55 49 6 0
-56 -49 -12 0
-56 49 -2 0
56 -49 12 0
56 49 2 0
-57 -49 -13 0
-57 49 -3 0
57 -49 13 0
57 49 3 0
-58 -49 -14 0
-58 49 -4 0
58 -49 14 0
58 49 4 0
-59 -49 -15 0
-59 49 -5 0
59 -49 15 0
59 49 5 0
-60 -49 -16 0
-60 49 -6 0
60 -49 16 0
60 49 6 0
-61 -12 0
-61 -13 0
61 12 13 0
-62 -14 0
-62 61 0
62 14 -61 0
-63 -15 0
-63 62 0
63 15 -62 0
-64 -16 0
-64 63 0
64 16 -63 0
-65 50 12 0
-65 -50 -12 0
65 50 -12 0
65 -50 12 0
-66 13 -7 0
-66 -13 7 0
66 13 7 0
66 -13 -7 0
-67 65 0
-67 66 0
67 -65 -66 0
-68 14 -8 0
-68 -14 8 0
68 14 8 0
68 -14 -8 0
-69 67 0
-69 68 0
69 -67 -68 0
-70 15 -9 0
-70 -15 9 0
70 15 9 0
70 -15 -9 0
-71 69 0
-71 70 0
71 -69 -70 0
-72 16 -10 0
-72 -16 10 0
72 16 10 0
72 -16 -10 0
-73 71 0
-73 72 0
73 -71 -72 0
-74 -64 0
-74 73 0
74 64 -73 0
-75 -17 0
-75 49 0
75 17 -49 0
-76 -74 0
-76 75 0
76 74 -75 0
77 -17 -49 0
78 -74 -77 0
79 7 -50 0
80 8 -79 0
81 9 -80 0
82 10 -81 0
83 64 -82 0
-84 -78 0
-84 -83 0
-85 -18 0
-85 -19 0
-86 -20 0
-86 85 0
-87 -21 0
-87 86 0
-88 -22 0
-88 87 0
-89 -23 0
-89 88 0
-90 -7 0
-90 -8 0
-91 -9 0
-91 90 0
-92 -10 0
-92 91 0
-93 -11 0
-93 92 0
-94 64 0
-94 93 0
-95 89 0
-95 94 0
-96 18 -16 0
-96 -18 -15 0
96 18 16 0
96 -18 15 0
-97 16 -12 0
-97 -16 12 0
97 16 12 0
97 -16 -12 0
-98 18 -12 0
-98 -18 97 0
98 18 12 0
98 -18 -97 0
-99 18 -15 0
-99 -18 -14 0
99 18 15 0
99 -18 14 0
-100 -99 98 0
-100 99 -98 0
100 -99 -98 0
100 99 98 0
-101 100 -96 0
-101 -100 96 0
101 100 96 0
101 -100 -96 0
-102 19 98 0
-102 -19 101 0
102 19 -98 0
102 -19 -101 0
-103 18 -14 0
-103 -18 -13 0
103 18 14 0
103 -18 13 0
-104 19 96 0
-104 -19 103 0
104 19 -96 0
104 -19 -103 0
-105 20 104 0
-105 -20 102 0
105 20 -104 0
105 -20 -102 0
-106 -104 102 0
-106 104 -102 0
106 -104 -102 0
106 104 102 0
-107 18 -13 0
-107 -18 -12 0
107 18 13 0
107 -18 12 0
-108 19 99 0
-108 -19 107 0
108 19 -99 0
108 -19 -107 0
-109 20 108 0
-109 -20 106 0
109 20 -108 0
109 -20 -106 0
-110 -108 102 0
-110 108 -102 0
110 -108 -102 0
110 108 102 0
-111 110 -104 0
-111 -110 104 0
111 110 104 0
111 -110 -104 0
-112 19 103 0
-112 -19 98 0
112 19 -103 0
112 -19 -98 0
-113 20 112 0
-113 -20 111 0
113 20 -112 0
113 -20 -111 0
-114 98 -96 0
-114 -98 96 0
114 98 96 0
114 -98 -96 0
-115 19 107 0
-115 -19 114 0
115 19 -107 0
115 -19 -114 0
-116 -115 102 0
-116 115 -102 0
116 -115 -102 0
116 115 102 0
-117 116 -112 0
-117 -116 112 0
117 116 112 0
117 -116 -112 0
-118 117 -108 0
-118 -117 108 0
118 117 108 0
118 -117 -108 0
-119 118 -104 0
-119 -118 104 0
119 118 104 0
119 -118 -104 0
-120 20 102 0
-120 -20 119 0
120 20 -102 0
120 -20 -119 0
-121 -112 102 0
-121 112 -102 0
121 -112 -102 0
121 112 102 0
-122 121 -108 0
-122 -121 108 0
122 121 108 0
122 -121 -108 0
-123 122 -104 0
-123 -122 104 0
123 122 104 0
123 -122 -104 0
-124 20 115 0
-124 -20 123 0
124 20 -115 0
124 -20 -123 0
-125 -124 120 0
-125 124 -120 0
125 -124 -120 0
125 124 120 0
-126 125 -113 0
-126 -125 113 0
126 125 113 0
126 -125 -113 0
-127 126 -109 0
-127 -126 109 0
127 126 109 0
127 -126 -109 0
-128 127 -105 0
-128 -127 105 0
128 127 105 0
128 -127 -105 0
-129 21 105 0
-129 -21 128 0
129 21 -105 0
129 -21 -128 0
-130 125 -109 0
-130 -125 109 0
130 125 109 0
130 -125 -109 0
-131 21 120 0
-131 -21 130 0
131 21 -120 0
131 -21 -130 0
-132 124 -113 0
-132 -124 113 0
132 124 113 0
132 -124 -113 0
-133 132 -105 0
-133 -132 105 0
133 132 105 0
133 -132 -105 0
-134 21 124 0
-134 -21 133 0
134 21 -124 0
134 -21 -133 0
-135 -134 131 0
-135 134 -131 0
135 -134 -131 0
135 134 131 0
-136 135 -129 0
-136 -135 129 0
136 135 129 0
136 -135 -129 0
-137 22 129 0
-137 -22 136 0
137 22 -129 0
137 -22 -136 0
-138 21 113 0
-138 -21 127 0
138 21 -113 0
138 -21 -127 0
-139 -138 134 0
-139 138 -134 0
139 -138 -134 0
139 138 134 0
-140 22 134 0
-140 -22 139 0
140 22 -134 0
140 -22 -139 0
-141 132 -109 0
-141 -132 109 0
141 132 109 0
141 -132 -109 0
-142 141 -105 0
-142 -141 105 0
142 141 105 0
142 -141 -105 0
-143 21 109 0
-143 -21 142 0
143 21 -109 0
143 -21 -142 0
-144 -143 138 0
-144 143 -138 0
144 -143 -138 0
144 143 138 0
-145 22 138 0
-145 -22 144 0
145 22 -138 0
145 -22 -144 0
-146 -145 140 0
-146 145 -140 0
146 -145 -140 0
146 145 140 0
-147 146 -137 0
-147 -146 137 0
147 146 137 0
147 -146 -137 0
-148 23 137 0
-148 -23 147 0
148 23 -137 0
148 -23 -147 0
-149 -148 -11 0
-149 148 11 0
-150 143 -129 0
-150 -143 129 0
150 143 129 0
150 -143 -129 0
-151 22 143 0
-151 -22 150 0
151 22 -143 0
151 -22 -150 0
-152 22 131 0
-152 -22 135 0
152 22 -131 0
152 -22 -135 0
-153 152 -140 0
-153 -152 140 0
153 152 140 0
153 -152 -140 0
-154 153 -151 0
-154 -153 151 0
154 153 151 0
154 -153 -151 0
-155 23 151 0
-155 -23 154 0
155 23 -151 0
155 -23 -154 0
-156 -155 -10 0
-156 155 10 0
-157 145 -137 0
-157 -145 137 0
157 145 137 0
157 -145 -137 0
-158 23 145 0
-158 -23 157 0
158 23 -145 0
158 -23 -157 0
-159 -158 -9 0
-159 158 9 0
-160 -151 140 0
-160 151 -140 0
160 -151 -140 0
160 151 140 0
-161 23 140 0
-161 -23 160 0
161 23 -140 0
161 -23 -160 0
-162 -161 -8 0
-162 161 8 0
-163 152 -145 0
-163 -152 145 0
163 152 145 0
163 -152 -145 0
-164 23 152 0
-164 -23 163 0
164 23 -152 0
164 -23 -163 0
-165 -164 -7 0
-165 164 7 0
-166 18 -17 0
-166 -18 17 0
-167 14 -12 0
-167 -14 12 0
167 14 12 0
167 -14 -12 0
-168 167 15 0
-168 -167 -15 0
168 167 -15 0
168 -167 15 0
-169 13 -12 0
-169 -13 12 0
169 13 12 0
169 -13 -12 0
-170 169 14 0
-170 -169 -14 0
170 169 -14 0
170 -169 14 0
-171 170 16 0
-171 -170 -16 0
171 170 -16 0
171 -170 16 0
-172 168 0
-172 171 0
172 -168 -171 0
-173 15 -12 0
-173 -15 12 0
173 15 12 0
173 -15 -12 0
-174 170 0
-174 173 0
174 -170 -173 0
-175 16 -13 0
-175 -16 13 0
175 16 13 0
175 -16 -13 0
-176 174 0
-176 175 0
176 -174 -175 0
-177 -172 0
-177 -176 0
177 172 176 0
-178 -22 0
-178 -23 0
-179 177 0
-179 178 0
-180 177 -22 0
-180 -177 22 0
-181 -23 0
-181 180 0
-182 -21 0
-182 181 0
-183 -20 0
-183 182 0
-184 -176 0
-184 183 0
185 179 184 0
-186 -176 172 0
-186 176 -172 0
186 -176 -172 0
186 176 172 0
-187 -176 -20 0
-187 176 20 0
-188 182 0
-188 187 0
-189 -19 0
-189 188 0
-190 -186 0
-190 189 0
191 -185 190 0
-192 -186 -19 0
-192 186 19 0
-193 188 0
-193 192 0
-194 -18 0
-194 193 0
195 -191 194 0
-196 -64 0
-196 -195 0
-197 166 0
-197 196 0
-198 165 0
-198 197 0
-199 162 0
-199 198 0
-200 159 0
-200 199 0
-201 156 0
-201 200 0
-202 149 0
-202 201 0
203 95 202 0
-204 84 0
-204 -203 0
-205 1 0
-205 204 0
-206 -51 -29 0
-206 51 29 0
-207 1 0
-207 206 0
-208 -52 -30 0
-208 52 30 0
-209 207 0
-209 208 0
-210 -53 -31 0
-210 53 31 0
-211 209 0
-211 210 0
-212 -54 -32 0
-212 54 32 0
-213 211 0
-213 212 0
-214 -55 -33 0
-214 55 33 0
-215 213 0
-215 214 0
-216 -56 -34 0
-216 56 34 0
-217 215 0
-217 216 0
-218 -57 -35 0
-218 57 35 0
-219 217 0
-219 218 0
-220 -58 -36 0
-220 58 36 0
-221 219 0
-221 220 0
-222 -59 -37 0
-222 59 37 0
-223 221 0
-223 222 0
-224 -60 -38 0
-224 60 38 0
-225 223 0
-225 224 0
-226 76 -39 0
-226 -76 39 0
-227 225 0
-227 226 0
-228 -64 0
-228 65 0
228 64 -65 0
-229 66 0
-229 228 0
229 -66 -228 0
-230 68 0
-230 229 0
230 -68 -229 0
-231 70 0
-231 230 0
231 -70 -230 0
-232 72 0
-232 231 0
232 -72 -231 0
-233 49 0
-233 -64 0
233 -49 64 0
-234 -232 0
-234 233 0
234 232 -233 0
-235 -18 0
-235 234 0
235 18 -234 0
-236 235 -40 0
-236 -235 40 0
-237 227 0
-237 236 0
-238 -19 18 0
-238 19 -18 0
238 -19 -18 0
238 19 18 0
-239 234 0
-239 -238 0
239 -234 238 0
-240 239 -41 0
-240 -239 41 0
-241 237 0
-241 240 0
-242 18 0
-242 19 0
242 -18 -19 0
-243 242 -20 0
-243 -242 20 0
243 242 20 0
243 -242 -20 0
-244 234 0
-244 -243 0
244 -234 243 0
-245 244 -42 0
-245 -244 42 0
-246 241 0
-246 245 0
-247 20 0
-247 242 0
247 -20 -242 0
-248 247 -21 0
-248 -247 21 0
248 247 21 0
248 -247 -21 0
-249 234 0
-249 -248 0
249 -234 248 0
-250 249 -43 0
-250 -249 43 0
-251 246 0
-251 250 0
-252 21 0
-252 247 0
252 -21 -247 0
-253 252 -22 0
-253 -252 22 0
253 252 22 0
253 -252 -22 0
-254 234 0
-254 -253 0
254 -234 253 0
-255 254 -44 0
-255 -254 44 0
-256 251 0
-256 255 0
-257 22 0
-257 252 0
257 -22 -252 0
-258 257 -23 0
-258 -257 23 0
258 257 23 0
258 -257 -23 0
-259 234 0
-259 -258 0
259 -234 258 0
-260 259 -45 0
-260 -259 45 0
-261 256 0
-261 260 0
-262 -34 0
-262 -35 0
262 34 35 0
-263 -36 0
-263 262 0
263 36 -262 0
-264 -37 0
-264 263 0
264 37 -263 0
-265 -38 0
-265 264 0
265 38 -264 0
-266 33 -29 0
-266 -33 29 0
266 33 29 0
266 -33 -29 0
267 266 -34 0
267 -266 34 0
268 35 29 0
268 -35 -29 0
269 -267 -268 0
270 36 30 0
270 -36 -30 0
271 -269 -270 0
272 37 31 0
272 -37 -31 0
273 -271 -272 0
274 38 32 0
274 -38 -32 0
275 -273 -274 0
276 265 -275 0
277 24 25 0
278 26 -277 0
279 27 -278 0
280 28 -279 0
281 -39 -280 0
282 -276 -281 0
283 29 -266 0
284 30 -283 0
285 31 -284 0
286 32 -285 0
287 265 -286 0
-288 -282 0
-288 -287 0
-289 -40 0
-289 -41 0
-290 -42 0
-290 289 0
-291 -43 0
-291 290 0
-292 -44 0
-292 291 0
-293 -45 0
-293 292 0
-294 -29 0
-294 -30 0
-295 -31 0
-295 294 0
-296 -32 0
-296 295 0
-297 -33 0
-297 296 0
-298 265 0
-298 297 0
-299 293 0
-299 298 0
-300 40 -38 0
-300 -40 -37 0
300 40 38 0
300 -40 37 0
-301 38 -34 0
-301 -38 34 0
301 38 34 0
301 -38 -34 0
-302 40 -34 0
-302 -40 301 0
302 40 34 0
302 -40 -301 0
-303 40 -37 0
-303 -40 -36 0
303 40 37 0
303 -40 36 0
-304 -303 302 0
-304 303 -302 0
304 -303 -302 0
304 303 302 0
-305 304 -300 0
-305 -304 300 0
305 304 300 0
305 -304 -300 0
-306 41 302 0
-306 -41 305 0
306 41 -302 0
306 -41 -305 0
-307 40 -36 0
-307 -40 -35 0
307 40 36 0
307 -40 35 0
-308 41 300 0
-308 -41 307 0
308 41 -300 0
308 -41 -307 0
-309 42 308 0
-309 -42 306 0
309 42 -308 0
309 -42 -306 0
-310 -308 306 0
-310 308 -306 0
310 -308 -306 0
310 308 306 0
-311 40 -35 0
-311 -40 -34 0
311 40 35 0
311 -40 34 0
-312 41 303 0
-312 -41 311 0
312 41 -303 0
312 -41 -311 0
-313 42 312 0
-313 -42 310 0
313 42 -312 0
313 -42 -310 0
-314 -312 306 0
-314 312 -306 0
314 -312 -306 0
314 312 306 0
-315 314 -308 0
-315 -314 308 0
315 314 308 0
315 -314 -308 0
-316 41 307 0
-316 -41 302 0
316 41 -307 0
316 -41 -302 0
-317 42 316 0
-317 -42 315 0
317 42 -316 0
317 -42 -315 0
-318 302 -300 0
-318 -302 300 0
318 302 300 0
318 -302 -300 0
-319 41 311 0
-319 -41 318 0
319 41 -311 0
319 -41 -318 0
-320 -319 306 0
-320 319 -306 0
320 -319 -306 0
320 319 306 0
-321 320 -316 0
-321 -320 316 0
321 320 316 0
321 -320 -316 0
-322 321 -312 0
-322 -321 312 0
322 321 312 0
322 -321 -312 0
-323 322 -308 0
-323 -322 308 0
323 322 308 0
323 -322 -308 0
-324 42 306 0
-324 -42 323 0
324 42 -306 0
324 -42 -323 0
-325 -316 306 0
-325 316 -306 0
325 -316 -306 0
325 316 306 0
-326 325 -312 0
-326 -325 312 0
326 325 312 0
326 -325 -312 0
-327 326 -308 0
-327 -326 308 0
327 326 308 0
327 -326 -308 0
-328 42 319 0
-328 -42 327 0
328 42 -319 0
328 -42 -327 0
-329 -328 324 0
-329 328 -324 0
329 -328 -324 0
329 328 324 0
-330 329 -317 0
-330 -329 317 0
330 329 317 0
330 -329 -317 0
-331 330 -313 0
-331 -330 313 0
331 330 313 0
331 -330 -313 0
-332 331 -309 0
-332 -331 309 0
332 331 309 0
332 -331 -309 0
-333 43 309 0
-333 -43 332 0
333 43 -309 0
333 -43 -332 0
-334 329 -313 0
-334 -329 313 0
334 329 313 0
334 -329 -313 0
-335 43 324 0
-335 -43 334 0
335 43 -324 0
335 -43 -334 0
-336 328 -317 0
-336 -328 317 0
336 328 317 0
336 -328 -317 0
-337 336 -309 0
-337 -336 309 0
337 336 309 0
337 -336 -309 0
-338 43 328 0
-338 -43 337 0
338 43 -328 0
338 -43 -337 0
-339 -338 335 0
-339 338 -335 0
339 -338 -335 0
339 338 335 0
-340 339 -333 0
-340 -339 333 0
340 339 333 0
340 -339 -333 0
-341 44 333 0
-341 -44 340 0
341 44 -333 0
341 -44 -340 0
-342 43 317 0
-342 -43 331 0
342 43 -317 0
342 -43 -331 0
-343 -342 338 0
-343 342 -338 0
343 -342 -338 0
343 342 338 0
-344 44 338 0
-344 -44 343 0
344 44 -338 0
344 -44 -343 0
-345 336 -313 0
-345 -336 313 0
345 336 313 0
345 -336 -313 0
-346 345 -309 0
-346 -345 309 0
346 345 309 0
346 -345 -309 0
-347 43 313 0
-347 -43 346 0
347 43 -313 0
347 -43 -346 0
-348 -347 342 0
-348 347 -342 0
348 -347 -342 0
348 347 342 0
-349 44 342 0
-349 -44 348 0
349 44 -342 0
349 -44 -348 0
-350 -349 344 0
-350 349 -344 0
350 -349 -344 0
350 349 344 0
-351 350 -341 0
-351 -350 341 0
351 350 341 0
351 -350 -341 0
-352 45 341 0
-352 -45 351 0
352 45 -341 0
352 -45 -351 0
-353 -352 -33 0
-353 352 33 0
-354 347 -333 0
-354 -347 333 0
354 347 333 0
354 -347 -333 0
-355 44 347 0
-355 -44 354 0
355 44 -347 0
355 -44 -354 0
-356 44 335 0
-356 -44 339 0
356 44 -335 0
356 -44 -339 0
-357 356 -344 0
-357 -356 344 0
357 356 344 0
357 -356 -344 0
-358 357 -355 0
-358 -357 355 0
358 357 355 0
358 -357 -355 0
-359 45 355 0
-359 -45 358 0
359 45 -355 0
359 -45 -358 0
-360 -359 -32 0
-360 359 32 0
-361 349 -341 0
-361 -349 341 0
361 349 341 0
361 -349 -341 0
-362 45 349 0
-362 -45 361 0
362 45 -349 0
362 -45 -361 0
-363 -362 -31 0
-363 362 31 0
-364 -355 344 0
-364 355 -344 0
364 -355 -344 0
364 355 344 0
-365 45 344 0
-365 -45 364 0
365 45 -344 0
365 -45 -364 0
-366 -365 -30 0
-366 365 30 0
-367 356 -349 0
-367 -356 349 0
367 356 349 0
367 -356 -349 0
-368 45 356 0
-368 -45 367 0
368 45 -356 0
368 -45 -367 0
-369 -368 -29 0
-369 368 29 0
-370 40 -39 0
-370 -40 39 0
-371 36 -34 0
-371 -36 34 0
371 36 34 0
371 -36 -34 0
-372 371 37 0
-372 -371 -37 0
372 371 -37 0
372 -371 37 0
-373 35 -34 0
-373 -35 34 0
373 35 34 0
373 -35 -34 0
-374 373 36 0
-374 -373 -36 0
374 373 -36 0
374 -373 36 0
-375 374 38 0
-375 -374 -38 0
375 374 -38 0
375 -374 38 0
-376 372 0
-376 375 0
376 -372 -375 0
-377 37 -34 0
-377 -37 34 0
377 37 34 0
377 -37 -34 0
-378 374 0
-378 377 0
378 -374 -377 0
-379 38 -35 0
-379 -38 35 0
379 38 35 0
379 -38 -35 0
-380 378 0
-380 379 0
380 -378 -379 0
-381 -376 0
-381 -380 0
381 376 380 0
-382 -44 0
-382 -45 0
-383 381 0
-383 382 0
-384 381 -44 0
-384 -381 44 0
-385 -45 0
-385 384 0
-386 -43 0
-386 385 0
-387 -42 0
-387 386 0
-388 -380 0
-388 387 0
389 383 388 0
-390 -380 376 0
-390 380 -376 0
390 -380 -376 0
390 380 376 0
-391 -380 -42 0
-391 380 42 0
-392 386 0
-392 391 0
-393 -41 0
-393 392 0
-394 -390 0
-394 393 0
395 -389 394 0
-396 -390 -41 0
-396 390 41 0
-397 392 0
-397 396 0
-398 -40 0
-398 397 0
399 -395 398 0
-400 -265 0
-400 -399 0
-401 370 0
-401 400 0
-402 369 0
-402 401 0
-403 366 0
-403 402 0
-404 363 0
-404 403 0
-405 360 0
-405 404 0
-406 353 0
-406 405 0
407 299 406 0
-408 288 0
-408 -407 0
-409 1 0
-409 408 0
-410 1 0
-410 1 0
-411 1 0
-411 410 0
-412 205 0
-412 411 0
-413 1 0
-413 412 0
-414 1 0
-414 413 0
-415 409 0
-415 414 0
-416 261 0
-416 415 0
-417 -1 0
-417 416 0
417 0
