p cnf 59 84
1 0
-13 2 1 0
-13 -2 -1 0
-14 1 0
-14 13 0
-15 3 1 0
-15 -3 -1 0
-16 14 0
-16 15 0
-17 4 1 0
-17 -4 -1 0
-18 16 0
-18 17 0
-19 5 1 0
-19 -5 -1 0
-20 18 0
-20 19 0
-21 6 1 0
-21 -6 -1 0
-22 20 0
-22 21 0
-23 7 1 0
-23 -7 -1 0
-24 22 0
-24 23 0
-25 8 1 0
-25 -8 -1 0
-26 24 0
-26 25 0
-27 9 1 0
-27 -9 -1 0
-28 26 0
-28 27 0
-29 10 1 0
-29 -10 -1 0
-30 28 0
-30 29 0
-31 11 1 0
-31 -11 -1 0
-32 30 0
-32 31 0
-33 12 1 0
-33 -12 -1 0
-34 32 0
-34 33 0
-35 1 0
-35 34 0
36 2 -1 0
36 -2 1 0
37 -1 -36 0
38 3 -1 0
38 -3 1 0
39 -37 -38 0
40 4 -1 0
40 -4 1 0
41 -39 -40 0
42 5 -1 0
42 -5 1 0
43 -41 -42 0
44 6 -1 0
44 -6 1 0
45 -43 -44 0
46 7 -1 0
46 -7 1 0
47 -45 -46 0
48 8 -1 0
48 -8 1 0
49 -47 -48 0
50 9 -1 0
50 -9 1 0
51 -49 -50 0
52 10 -1 0
52 -10 1 0
53 -51 -52 0
54 11 -1 0
54 -11 1 0
55 -53 -54 0
56 12 -1 0
56 -12 1 0
57 -55 -56 0
58 -1 -57 0
-59 35 0
-59 -58 0
59 0
