p cnf 202 492
1 0
-24 -2 0
-24 -3 0
-25 -4 0
-25 24 0
-26 -5 0
-26 25 0
-27 -6 0
-27 26 0
-28 11 -7 0
-28 -11 7 0
28 11 7 0
28 -11 -7 0
29 12 13 0
30 14 -29 0
31 15 -30 0
32 16 -31 0
-33 28 12 0
-33 -28 -12 0
-34 13 -7 0
-34 -13 7 0
-35 33 0
-35 34 0
-36 14 -8 0
-36 -14 8 0
-37 35 0
-37 36 0
-38 15 -9 0
-38 -15 9 0
-39 37 0
-39 38 0
-40 16 -10 0
-40 -16 10 0
-41 39 0
-41 40 0
-42 -32 0
-42 41 0
43 2 3 0
44 4 -43 0
45 5 -44 0
46 6 -45 0
-47 11 -7 0
-47 -11 7 0
47 11 7 0
47 -11 -7 0
-48 -12 0
-48 -13 0
48 12 13 0
-49 -14 0
-49 48 0
49 14 -48 0
-50 -15 0
-50 49 0
50 15 -49 0
-51 -16 0
-51 50 0
51 16 -50 0
52 47 -12 0
52 -47 12 0
53 13 7 0
53 -13 -7 0
54 -52 -53 0
55 14 8 0
55 -14 -8 0
56 -54 -55 0
57 15 9 0
57 -15 -9 0
58 -56 -57 0
59 16 10 0
59 -16 -10 0
60 -58 -59 0
61 51 -60 0
-62 17 0
-62 27 0
-63 42 0
-63 62 0
-64 -7 0
-64 28 0
-65 -8 0
-65 64 0
-66 -9 0
-66 65 0
-67 -10 0
-67 66 0
-68 -32 0
-68 67 0
69 63 68 0
70 -1 -69 0
71 -17 -46 0
72 -61 -71 0
73 7 -47 0
74 8 -73 0
75 9 -74 0
76 10 -75 0
77 51 -76 0
-78 -72 0
-78 -77 0
-79 -18 0
-79 -19 0
-80 -20 0
-80 79 0
-81 -21 0
-81 80 0
-82 -22 0
-82 81 0
-83 -23 0
-83 82 0
-84 -7 0
-84 -8 0
-85 -9 0
-85 84 0
-86 -10 0
-86 85 0
-87 -11 0
-87 86 0
-88 51 0
-88 87 0
-89 83 0
-89 88 0
-90 18 -16 0
-90 -18 -15 0
90 18 16 0
90 -18 15 0
-91 16 -12 0
-91 -16 12 0
91 16 12 0
91 -16 -12 0
-92 18 -12 0
-92 -18 91 0
92 18 12 0
92 -18 -91 0
-93 18 -15 0
-93 -18 -14 0
93 18 15 0
93 -18 14 0
-94 -93 92 0
-94 93 -92 0
94 -93 -92 0
94 93 92 0
-95 94 -90 0
-95 -94 90 0
95 94 90 0
95 -94 -90 0
-96 19 92 0
-96 -19 95 0
96 19 -92 0
96 -19 -95 0
-97 18 -14 0
-97 -18 -13 0
97 18 14 0
97 -18 13 0
-98 19 90 0
-98 -19 97 0
98 19 -90 0
98 -19 -97 0
-99 20 98 0
-99 -20 96 0
99 20 -98 0
99 -20 -96 0
-100 -98 96 0
-100 98 -96 0
100 -98 -96 0
100 98 96 0
-101 18 -13 0
-101 -18 -12 0
101 18 13 0
101 -18 12 0
-102 19 93 0
-102 -19 101 0
102 19 -93 0
102 -19 -101 0
-103 20 102 0
-103 -20 100 0
103 20 -102 0
103 -20 -100 0
-104 -102 96 0
-104 102 -96 0
104 -102 -96 0
104 102 96 0
-105 104 -98 0
-105 -104 98 0
105 104 98 0
105 -104 -98 0
-106 19 97 0
-106 -19 92 0
106 19 -97 0
106 -19 -92 0
-107 20 106 0
-107 -20 105 0
107 20 -106 0
107 -20 -105 0
-108 92 -90 0
-108 -92 90 0
108 92 90 0
108 -92 -90 0
-109 19 101 0
-109 -19 108 0
109 19 -101 0
109 -19 -108 0
-110 -109 96 0
-110 109 -96 0
110 -109 -96 0
110 109 96 0
-111 110 -106 0
-111 -110 106 0
111 110 106 0
111 -110 -106 0
-112 111 -102 0
-112 -111 102 0
112 111 102 0
112 -111 -102 0
-113 112 -98 0
-113 -112 98 0
113 112 98 0
113 -112 -98 0
-114 20 96 0
-114 -20 113 0
114 20 -96 0
114 -20 -113 0
-115 -106 96 0
-115 106 -96 0
115 -106 -96 0
115 106 96 0
-116 115 -102 0
-116 -115 102 0
116 115 102 0
116 -115 -102 0
-117 116 -98 0
-117 -116 98 0
117 116 98 0
117 -116 -98 0
-118 20 109 0
-118 -20 117 0
118 20 -109 0
118 -20 -117 0
-119 -118 114 0
-119 118 -114 0
119 -118 -114 0
119 118 114 0
-120 119 -107 0
-120 -119 107 0
120 119 107 0
120 -119 -107 0
-121 120 -103 0
-121 -120 103 0
121 120 103 0
121 -120 -103 0
-122 121 -99 0
-122 -121 99 0
122 121 99 0
122 -121 -99 0
-123 21 99 0
-123 -21 122 0
123 21 -99 0
123 -21 -122 0
-124 119 -103 0
-124 -119 103 0
124 119 103 0
124 -119 -103 0
-125 21 114 0
-125 -21 124 0
125 21 -114 0
125 -21 -124 0
-126 118 -107 0
-126 -118 107 0
126 118 107 0
126 -118 -107 0
-127 126 -99 0
-127 -126 99 0
127 126 99 0
127 -126 -99 0
-128 21 118 0
-128 -21 127 0
128 21 -118 0
128 -21 -127 0
-129 -128 125 0
-129 128 -125 0
129 -128 -125 0
129 128 125 0
-130 129 -123 0
-130 -129 123 0
130 129 123 0
130 -129 -123 0
-131 22 123 0
-131 -22 130 0
131 22 -123 0
131 -22 -130 0
-132 21 107 0
-132 -21 121 0
132 21 -107 0
132 -21 -121 0
-133 -132 128 0
-133 132 -128 0
133 -132 -128 0
133 132 128 0
-134 22 128 0
-134 -22 133 0
134 22 -128 0
134 -22 -133 0
-135 126 -103 0
-135 -126 103 0
135 126 103 0
135 -126 -103 0
-136 135 -99 0
-136 -135 99 0
136 135 99 0
136 -135 -99 0
-137 21 103 0
-137 -21 136 0
137 21 -103 0
137 -21 -136 0
-138 -137 132 0
-138 137 -132 0
138 -137 -132 0
138 137 132 0
-139 22 132 0
-139 -22 138 0
139 22 -132 0
139 -22 -138 0
-140 -139 134 0
-140 139 -134 0
140 -139 -134 0
140 139 134 0
-141 140 -131 0
-141 -140 131 0
141 140 131 0
141 -140 -131 0
-142 23 131 0
-142 -23 141 0
142 23 -131 0
142 -23 -141 0
-143 -142 -11 0
-143 142 11 0
-144 137 -123 0
-144 -137 123 0
144 137 123 0
144 -137 -123 0
-145 22 137 0
-145 -22 144 0
145 22 -137 0
145 -22 -144 0
-146 22 125 0
-146 -22 129 0
146 22 -125 0
146 -22 -129 0
-147 146 -134 0
-147 -146 134 0
147 146 134 0
147 -146 -134 0
-148 147 -145 0
-148 -147 145 0
148 147 145 0
148 -147 -145 0
-149 23 145 0
-149 -23 148 0
149 23 -145 0
149 -23 -148 0
-150 -149 -10 0
-150 149 10 0
-151 139 -131 0
-151 -139 131 0
151 139 131 0
151 -139 -131 0
-152 23 139 0
-152 -23 151 0
152 23 -139 0
152 -23 -151 0
-153 -152 -9 0
-153 152 9 0
-154 -145 134 0
-154 145 -134 0
154 -145 -134 0
154 145 134 0
-155 23 134 0
-155 -23 154 0
155 23 -134 0
155 -23 -154 0
-156 -155 -8 0
-156 155 8 0
-157 146 -139 0
-157 -146 139 0
157 146 139 0
157 -146 -139 0
-158 23 146 0
-158 -23 157 0
158 23 -146 0
158 -23 -157 0
-159 -158 -7 0
-159 158 7 0
-160 18 -17 0
-160 -18 17 0
-161 14 -12 0
-161 -14 12 0
161 14 12 0
161 -14 -12 0
-162 161 15 0
-162 -161 -15 0
162 161 -15 0
162 -161 15 0
-163 13 -12 0
-163 -13 12 0
163 13 12 0
163 -13 -12 0
-164 163 14 0
-164 -163 -14 0
164 163 -14 0
164 -163 14 0
-165 164 16 0
-165 -164 -16 0
165 164 -16 0
165 -164 16 0
-166 162 0
-166 165 0
166 -162 -165 0
-167 15 -12 0
-167 -15 12 0
167 15 12 0
167 -15 -12 0
-168 164 0
-168 167 0
168 -164 -167 0
-169 16 -13 0
-169 -16 13 0
169 16 13 0
169 -16 -13 0
-170 168 0
-170 169 0
170 -168 -169 0
-171 -166 0
-171 -170 0
171 166 170 0
-172 -22 0
-172 -23 0
-173 171 0
-173 172 0
-174 171 -22 0
-174 -171 22 0
-175 -23 0
-175 174 0
-176 -21 0
-176 175 0
-177 -20 0
-177 176 0
-178 -170 0
-178 177 0
179 173 178 0
-180 -170 166 0
-180 170 -166 0
180 -170 -166 0
180 170 166 0
-181 -170 -20 0
-181 170 20 0
-182 176 0
-182 181 0
-183 -19 0
-183 182 0
-184 -180 0
-184 183 0
185 -179 184 0
-186 -180 -19 0
-186 180 19 0
-187 182 0
-187 186 0
-188 -18 0
-188 187 0
189 -185 188 0
-190 -51 0
-190 -189 0
-191 160 0
-191 190 0
-192 159 0
-192 191 0
-193 156 0
-193 192 0
-194 153 0
-194 193 0
-195 150 0
-195 194 0
-196 143 0
-196 195 0
197 89 196 0
-198 78 0
-198 -197 0
-199 1 0
-199 198 0
-200 1 0
-200 1 0
-201 199 0
-201 200 0
-202 -70 0
-202 201 0
202 0
