p cnf 139 306
1 0
-29 -2 0
-29 -3 0
29 2 3 0
-30 -4 0
-30 29 0
30 4 -29 0
-31 -5 0
-31 30 0
31 5 -30 0
-32 -6 0
-32 31 0
32 6 -31 0
-33 11 -7 0
-33 -11 7 0
33 11 7 0
33 -11 -7 0
-34 -32 33 0
-34 32 -2 0
34 -32 -33 0
34 32 2 0
-35 -34 -18 0
-35 34 18 0
-36 1 0
-36 35 0
-37 -32 -7 0
-37 32 -3 0
37 -32 7 0
37 32 3 0
-38 -37 -19 0
-38 37 19 0
-39 36 0
-39 38 0
-40 -32 -8 0
-40 32 -4 0
40 -32 8 0
40 32 4 0
-41 -40 -20 0
-41 40 20 0
-42 39 0
-42 41 0
-43 -32 -9 0
-43 32 -5 0
43 -32 9 0
43 32 5 0
-44 -43 -21 0
-44 43 21 0
-45 42 0
-45 44 0
-46 -32 -10 0
-46 32 -6 0
46 -32 10 0
46 32 6 0
-47 -46 -22 0
-47 46 22 0
-48 45 0
-48 47 0
-49 -32 -12 0
-49 32 -2 0
49 -32 12 0
49 32 2 0
-50 -49 -23 0
-50 49 23 0
-51 48 0
-51 50 0
-52 -32 -13 0
-52 32 -3 0
52 -32 13 0
52 32 3 0
-53 -52 -24 0
-53 52 24 0
-54 51 0
-54 53 0
-55 -32 -14 0
-55 32 -4 0
55 -32 14 0
55 32 4 0
-56 -55 -25 0
-56 55 25 0
-57 54 0
-57 56 0
-58 -32 -15 0
-58 32 -5 0
58 -32 15 0
58 32 5 0
-59 -58 -26 0
-59 58 26 0
-60 57 0
-60 59 0
-61 -32 -16 0
-61 32 -6 0
61 -32 16 0
61 32 6 0
-62 -61 -27 0
-62 61 27 0
-63 60 0
-63 62 0
-64 -12 0
-64 -13 0
64 12 13 0
-65 -14 0
-65 64 0
65 14 -64 0
-66 -15 0
-66 65 0
66 15 -65 0
-67 -16 0
-67 66 0
67 16 -66 0
-68 33 12 0
-68 -33 -12 0
68 33 -12 0
68 -33 12 0
-69 13 -7 0
-69 -13 7 0
69 13 7 0
69 -13 -7 0
-70 68 0
-70 69 0
70 -68 -69 0
-71 14 -8 0
-71 -14 8 0
71 14 8 0
71 -14 -8 0
-72 70 0
-72 71 0
72 -70 -71 0
-73 15 -9 0
-73 -15 9 0
73 15 9 0
73 -15 -9 0
-74 72 0
-74 73 0
74 -72 -73 0
-75 16 -10 0
-75 -16 10 0
75 16 10 0
75 -16 -10 0
-76 74 0
-76 75 0
76 -74 -75 0
-77 -67 0
-77 76 0
77 67 -76 0
-78 -17 0
-78 32 0
78 17 -32 0
-79 -77 0
-79 78 0
79 77 -78 0
-80 79 -28 0
-80 -79 28 0
-81 63 0
-81 80 0
-82 1 0
-82 81 0
-83 1 0
-83 82 0
-84 1 0
-84 83 0
-85 -2 0
-85 -3 0
85 2 3 0
-86 -4 0
-86 85 0
86 4 -85 0
-87 -5 0
-87 86 0
87 5 -86 0
-88 -6 0
-88 87 0
88 6 -87 0
-89 11 -7 0
-89 -11 7 0
89 11 7 0
89 -11 -7 0
-90 -88 89 0
-90 88 -2 0
90 -88 -89 0
90 88 2 0
91 -90 18 0
91 90 -18 0
92 -1 -91 0
-93 -88 -7 0
-93 88 -3 0
93 -88 7 0
93 88 3 0
94 -93 19 0
94 93 -19 0
95 -92 -94 0
-96 -88 -8 0
-96 88 -4 0
96 -88 8 0
96 88 4 0
97 -96 20 0
97 96 -20 0
98 -95 -97 0
-99 -88 -9 0
-99 88 -5 0
99 -88 9 0
99 88 5 0
100 -99 21 0
100 99 -21 0
101 -98 -100 0
-102 -88 -10 0
-102 88 -6 0
102 -88 10 0
102 88 6 0
103 -102 22 0
103 102 -22 0
104 -101 -103 0
-105 -88 -12 0
-105 88 -2 0
105 -88 12 0
105 88 2 0
106 -105 23 0
106 105 -23 0
107 -104 -106 0
-108 -88 -13 0
-108 88 -3 0
108 -88 13 0
108 88 3 0
109 -108 24 0
109 108 -24 0
110 -107 -109 0
-111 -88 -14 0
-111 88 -4 0
111 -88 14 0
111 88 4 0
112 -111 25 0
112 111 -25 0
113 -110 -112 0
-114 -88 -15 0
-114 88 -5 0
114 -88 15 0
114 88 5 0
115 -114 26 0
115 114 -26 0
116 -113 -115 0
-117 -88 -16 0
-117 88 -6 0
117 -88 16 0
117 88 6 0
118 -117 27 0
118 117 -27 0
119 -116 -118 0
-120 -12 0
-120 -13 0
120 12 13 0
-121 -14 0
-121 120 0
121 14 -120 0
-122 -15 0
-122 121 0
122 15 -121 0
-123 -16 0
-123 122 0
123 16 -122 0
-124 89 12 0
-124 -89 -12 0
124 89 -12 0
124 -89 12 0
-125 13 -7 0
-125 -13 7 0
125 13 7 0
125 -13 -7 0
-126 124 0
-126 125 0
126 -124 -125 0
-127 14 -8 0
-127 -14 8 0
127 14 8 0
127 -14 -8 0
-128 126 0
-128 127 0
128 -126 -127 0
-129 15 -9 0
-129 -15 9 0
129 15 9 0
129 -15 -9 0
-130 128 0
-130 129 0
130 -128 -129 0
-131 16 -10 0
-131 -16 10 0
131 16 10 0
131 -16 -10 0
-132 130 0
-132 131 0
132 -130 -131 0
-133 -123 0
-133 132 0
133 123 -132 0
-134 -17 0
-134 88 0
134 17 -88 0
-135 -133 0
-135 134 0
135 133 -134 0
136 135 28 0
136 -135 -28 0
137 -119 -136 0
138 -1 -137 0
-139 84 0
-139 -138 0
139 0
