p cnf 1282 3756
1 0
-101 -2 0
-101 -3 0
101 2 3 0
-102 -4 0
-102 -5 0
102 4 5 0
-103 101 0
-103 102 0
103 -101 -102 0
-104 -6 0
-104 -7 0
104 6 7 0
-105 -8 0
-105 -9 0
105 8 9 0
-106 104 0
-106 105 0
106 -104 -105 0
-107 103 0
-107 106 0
107 -103 -106 0
-108 -17 13 0
-108 17 -13 0
108 -17 -13 0
108 17 13 0
-109 108 14 0
-109 -108 -14 0
109 108 -14 0
109 -108 14 0
-110 109 15 0
-110 -109 -15 0
110 109 -15 0
110 -109 15 0
-111 -107 110 0
-111 107 -2 0
111 -107 -110 0
111 107 2 0
-112 -107 -10 0
-112 107 -3 0
112 -107 10 0
112 107 3 0
-113 -107 -11 0
-113 107 -4 0
113 -107 11 0
113 107 4 0
-114 -107 -12 0
-114 107 -5 0
114 -107 12 0
114 107 5 0
-115 -107 -13 0
-115 107 -6 0
115 -107 13 0
115 107 6 0
-116 -107 -14 0
-116 107 -7 0
116 -107 14 0
116 107 7 0
-117 -107 -15 0
-117 107 -8 0
117 -107 15 0
117 107 8 0
-118 -107 -16 0
-118 107 -9 0
118 -107 16 0
118 107 9 0
-119 -107 -18 0
-119 107 -2 0
119 -107 18 0
119 107 2 0
-120 -107 -19 0
-120 107 -3 0
120 -107 19 0
120 107 3 0
-121 -107 -20 0
-121 107 -4 0
121 -107 20 0
121 107 4 0
-122 -107 -21 0
-122 107 -5 0
122 -107 21 0
122 107 5 0
-123 -107 -22 0
-123 107 -6 0
123 -107 22 0
123 107 6 0
-124 -107 -23 0
-124 107 -7 0
124 -107 23 0
124 107 7 0
-125 -107 -24 0
-125 107 -8 0
125 -107 24 0
125 107 8 0
-126 -107 -25 0
-126 107 -9 0
126 -107 25 0
126 107 9 0
-127 -18 0
-127 -19 0
127 18 19 0
-128 -20 0
-128 -21 0
128 20 21 0
-129 127 0
-129 128 0
129 -127 -128 0
-130 -22 0
-130 -23 0
130 22 23 0
-131 -24 0
-131 -25 0
131 24 25 0
-132 130 0
-132 131 0
132 -130 -131 0
-133 129 0
-133 132 0
133 -129 -132 0
-134 110 -18 0
-134 -110 18 0
134 110 18 0
134 -110 -18 0
-135 -19 -10 0
-135 19 10 0
135 -19 10 0
135 19 -10 0
-136 -134 0
-136 -135 0
136 134 135 0
-137 -20 -11 0
-137 20 11 0
137 -20 11 0
137 20 -11 0
-138 -21 -12 0
-138 21 12 0
138 -21 12 0
138 21 -12 0
-139 -137 0
-139 -138 0
139 137 138 0
-140 136 0
-140 139 0
140 -136 -139 0
-141 -22 -13 0
-141 22 13 0
141 -22 13 0
141 22 -13 0
-142 -23 -14 0
-142 23 14 0
142 -23 14 0
142 23 -14 0
-143 -141 0
-143 -142 0
143 141 142 0
-144 -24 -15 0
-144 24 15 0
144 -24 15 0
144 24 -15 0
-145 -25 -16 0
-145 25 16 0
145 -25 16 0
145 25 -16 0
-146 -144 0
-146 -145 0
146 144 145 0
-147 143 0
-147 146 0
147 -143 -146 0
-148 140 0
-148 147 0
148 -140 -147 0
-149 -133 0
-149 148 0
149 133 -148 0
-150 107 0
-150 -149 0
150 -107 149 0
-151 -26 0
-151 150 0
151 26 -150 0
152 -26 -149 0
153 -107 -152 0
154 10 -110 0
155 11 12 0
156 -154 -155 0
157 13 14 0
158 15 16 0
159 -157 -158 0
160 -156 -159 0
161 133 -160 0
-162 -153 0
-162 -161 0
-163 -27 0
-163 -28 0
-164 -29 0
-164 163 0
-165 -30 0
-165 164 0
-166 -31 0
-166 165 0
-167 -32 0
-167 166 0
-168 -33 0
-168 167 0
-169 -34 0
-169 168 0
-170 -20 0
-170 127 0
170 20 -127 0
-171 -21 0
-171 170 0
171 21 -170 0
-172 -22 0
-172 171 0
172 22 -171 0
-173 -23 0
-173 172 0
173 23 -172 0
-174 -24 0
-174 173 0
174 24 -173 0
-175 -25 0
-175 174 0
175 25 -174 0
-176 -10 0
-176 -11 0
-177 -12 0
-177 176 0
-178 -13 0
-178 177 0
-179 -14 0
-179 178 0
-180 -15 0
-180 179 0
-181 -16 0
-181 180 0
-182 -17 0
-182 181 0
-183 175 0
-183 182 0
-184 169 0
-184 183 0
-185 27 -25 0
-185 -27 -24 0
185 27 25 0
185 -27 24 0
-186 27 -23 0
-186 -27 -22 0
186 27 23 0
186 -27 22 0
-187 27 -21 0
-187 -27 -20 0
187 27 21 0
187 -27 20 0
-188 27 -22 0
-188 -27 -21 0
188 27 22 0
188 -27 21 0
-189 -188 187 0
-189 188 -187 0
189 -188 -187 0
189 188 187 0
-190 189 -186 0
-190 -189 186 0
190 189 186 0
190 -189 -186 0
-191 190 -185 0
-191 -190 185 0
191 190 185 0
191 -190 -185 0
-192 27 -19 0
-192 -27 -18 0
192 27 19 0
192 -27 18 0
-193 28 192 0
-193 -28 191 0
193 28 -192 0
193 -28 -191 0
-194 28 186 0
-194 -28 187 0
194 28 -186 0
194 -28 -187 0
-195 29 194 0
-195 -29 193 0
195 29 -194 0
195 -29 -193 0
-196 28 185 0
-196 -28 186 0
196 28 -185 0
196 -28 -186 0
-197 28 187 0
-197 -28 192 0
197 28 -187 0
197 -28 -192 0
-198 27 -20 0
-198 -27 -19 0
198 27 20 0
198 -27 19 0
-199 28 188 0
-199 -28 198 0
199 28 -188 0
199 -28 -198 0
-200 -199 197 0
-200 199 -197 0
200 -199 -197 0
200 199 197 0
-201 200 -194 0
-201 -200 194 0
201 200 194 0
201 -200 -194 0
-202 201 -196 0
-202 -201 196 0
202 201 196 0
202 -201 -196 0
-203 29 197 0
-203 -29 202 0
203 29 -197 0
203 -29 -202 0
-204 22 -21 0
-204 -22 21 0
204 22 21 0
204 -22 -21 0
-205 204 23 0
-205 -204 -23 0
205 204 -23 0
205 -204 23 0
-206 205 25 0
-206 -205 -25 0
206 205 -25 0
206 -205 25 0
-207 27 -18 0
-207 -27 206 0
207 27 18 0
207 -27 -206 0
-208 28 198 0
-208 -28 207 0
208 28 -198 0
208 -28 -207 0
-209 -208 193 0
-209 208 -193 0
209 -208 -193 0
209 208 193 0
-210 209 -197 0
-210 -209 197 0
210 209 197 0
210 -209 -197 0
-211 210 -194 0
-211 -210 194 0
211 210 194 0
211 -210 -194 0
-212 29 193 0
-212 -29 211 0
212 29 -193 0
212 -29 -211 0
-213 27 -24 0
-213 -27 -23 0
213 27 24 0
213 -27 23 0
-214 28 213 0
-214 -28 188 0
214 28 -213 0
214 -28 -188 0
-215 208 -197 0
-215 -208 197 0
215 208 197 0
215 -208 -197 0
-216 215 -199 0
-216 -215 199 0
216 215 199 0
216 -215 -199 0
-217 216 -214 0
-217 -216 214 0
217 216 214 0
217 -216 -214 0
-218 29 208 0
-218 -29 217 0
218 29 -208 0
218 -29 -217 0
-219 -218 212 0
-219 218 -212 0
219 -218 -212 0
219 218 212 0
-220 219 -203 0
-220 -219 203 0
220 219 203 0
220 -219 -203 0
-221 220 -195 0
-221 -220 195 0
221 220 195 0
221 -220 -195 0
-222 30 195 0
-222 -30 221 0
222 30 -195 0
222 -30 -221 0
-223 29 196 0
-223 -29 197 0
223 29 -196 0
223 -29 -197 0
-224 29 214 0
-224 -29 208 0
224 29 -214 0
224 -29 -208 0
-225 -224 203 0
-225 224 -203 0
225 -224 -203 0
225 224 203 0
-226 225 -223 0
-226 -225 223 0
226 225 223 0
226 -225 -223 0
-227 30 212 0
-227 -30 226 0
227 30 -212 0
227 -30 -226 0
-228 198 -187 0
-228 -198 187 0
228 198 187 0
228 -198 -187 0
-229 228 -188 0
-229 -228 188 0
229 228 188 0
229 -228 -188 0
-230 229 -213 0
-230 -229 213 0
230 229 213 0
230 -229 -213 0
-231 28 207 0
-231 -28 230 0
231 28 -207 0
231 -28 -230 0
-232 29 199 0
-232 -29 231 0
232 29 -199 0
232 -29 -231 0
-233 231 -193 0
-233 -231 193 0
233 231 193 0
233 -231 -193 0
-234 233 -208 0
-234 -233 208 0
234 233 208 0
234 -233 -208 0
-235 234 -199 0
-235 -234 199 0
235 234 199 0
235 -234 -199 0
-236 29 231 0
-236 -29 235 0
236 29 -231 0
236 -29 -235 0
-237 236 -212 0
-237 -236 212 0
237 236 212 0
237 -236 -212 0
-238 237 -218 0
-238 -237 218 0
238 237 218 0
238 -237 -218 0
-239 238 -232 0
-239 -238 232 0
239 238 232 0
239 -238 -232 0
-240 30 232 0
-240 -30 239 0
240 30 -232 0
240 -30 -239 0
-241 -240 227 0
-241 240 -227 0
241 -240 -227 0
241 240 227 0
-242 241 -222 0
-242 -241 222 0
242 241 222 0
242 -241 -222 0
-243 -232 203 0
-243 232 -203 0
243 -232 -203 0
243 232 203 0
-244 243 -195 0
-244 -243 195 0
244 243 195 0
244 -243 -195 0
-245 244 -223 0
-245 -244 223 0
245 244 223 0
245 -244 -223 0
-246 30 223 0
-246 -30 245 0
246 30 -223 0
246 -30 -245 0
-247 31 246 0
-247 -31 242 0
247 31 -246 0
247 -31 -242 0
-248 236 -195 0
-248 -236 195 0
248 236 195 0
248 -236 -195 0
-249 248 -224 0
-249 -248 224 0
249 248 224 0
249 -248 -224 0
-250 249 -223 0
-250 -249 223 0
250 249 223 0
250 -249 -223 0
-251 30 218 0
-251 -30 250 0
251 30 -218 0
251 -30 -250 0
-252 251 -240 0
-252 -251 240 0
252 251 240 0
252 -251 -240 0
-253 252 -222 0
-253 -252 222 0
253 252 222 0
253 -252 -222 0
-254 253 -246 0
-254 -253 246 0
254 253 246 0
254 -253 -246 0
-255 31 222 0
-255 -31 254 0
255 31 -222 0
255 -31 -254 0
-256 218 -203 0
-256 -218 203 0
256 218 203 0
256 -218 -203 0
-257 256 -232 0
-257 -256 232 0
257 256 232 0
257 -256 -232 0
-258 257 -224 0
-258 -257 224 0
258 257 224 0
258 -257 -224 0
-259 30 224 0
-259 -30 258 0
259 30 -224 0
259 -30 -258 0
-260 237 -232 0
-260 -237 232 0
260 237 232 0
260 -237 -232 0
-261 260 -195 0
-261 -260 195 0
261 260 195 0
261 -260 -195 0
-262 261 -223 0
-262 -261 223 0
262 261 223 0
262 -261 -223 0
-263 30 203 0
-263 -30 262 0
263 30 -203 0
263 -30 -262 0
-264 -263 227 0
-264 263 -227 0
264 -263 -227 0
264 263 227 0
-265 264 -240 0
-265 -264 240 0
265 264 240 0
265 -264 -240 0
-266 265 -259 0
-266 -265 259 0
266 265 259 0
266 -265 -259 0
-267 31 240 0
-267 -31 266 0
267 31 -240 0
267 -31 -266 0
-268 218 -195 0
-268 -218 195 0
268 218 195 0
268 -218 -195 0
-269 268 -224 0
-269 -268 224 0
269 268 224 0
269 -268 -224 0
-270 30 236 0
-270 -30 269 0
270 30 -236 0
270 -30 -269 0
-271 270 -227 0
-271 -270 227 0
271 270 227 0
271 -270 -227 0
-272 271 -240 0
-272 -271 240 0
272 271 240 0
272 -271 -240 0
-273 272 -246 0
-273 -272 246 0
273 272 246 0
273 -272 -246 0
-274 31 270 0
-274 -31 273 0
274 31 -270 0
274 -31 -273 0
-275 270 -251 0
-275 -270 251 0
275 270 251 0
275 -270 -251 0
-276 275 -263 0
-276 -275 263 0
276 275 263 0
276 -275 -263 0
-277 276 -222 0
-277 -276 222 0
277 276 222 0
277 -276 -222 0
-278 31 263 0
-278 -31 277 0
278 31 -263 0
278 -31 -277 0
-279 -278 274 0
-279 278 -274 0
279 -278 -274 0
279 278 274 0
-280 279 -267 0
-280 -279 267 0
280 279 267 0
280 -279 -267 0
-281 280 -255 0
-281 -280 255 0
281 280 255 0
281 -280 -255 0
-282 281 -247 0
-282 -281 247 0
282 281 247 0
282 -281 -247 0
-283 32 247 0
-283 -32 282 0
283 32 -247 0
283 -32 -282 0
-284 270 -263 0
-284 -270 263 0
284 270 263 0
284 -270 -263 0
-285 284 -240 0
-285 -284 240 0
285 284 240 0
285 -284 -240 0
-286 31 259 0
-286 -31 285 0
286 31 -259 0
286 -31 -285 0
-287 -251 227 0
-287 251 -227 0
287 -251 -227 0
287 251 227 0
-288 287 -263 0
-288 -287 263 0
288 287 263 0
288 -287 -263 0
-289 288 -222 0
-289 -288 222 0
289 288 222 0
289 -288 -222 0
-290 289 -246 0
-290 -289 246 0
290 289 246 0
290 -289 -246 0
-291 31 251 0
-291 -31 290 0
291 31 -251 0
291 -31 -290 0
-292 291 -255 0
-292 -291 255 0
292 291 255 0
292 -291 -255 0
-293 292 -286 0
-293 -292 286 0
293 292 286 0
293 -292 -286 0
-294 293 -247 0
-294 -293 247 0
294 293 247 0
294 -293 -247 0
-295 32 286 0
-295 -32 294 0
295 32 -286 0
295 -32 -294 0
-296 271 -251 0
-296 -271 251 0
296 271 251 0
296 -271 -251 0
-297 296 -240 0
-297 -296 240 0
297 296 240 0
297 -296 -240 0
-298 297 -259 0
-298 -297 259 0
298 297 259 0
298 -297 -259 0
-299 31 227 0
-299 -31 298 0
299 31 -227 0
299 -31 -298 0
-300 299 -267 0
-300 -299 267 0
300 299 267 0
300 -299 -267 0
-301 300 -255 0
-301 -300 255 0
301 300 255 0
301 -300 -255 0
-302 301 -286 0
-302 -301 286 0
302 301 286 0
302 -301 -286 0
-303 32 255 0
-303 -32 302 0
303 32 -255 0
303 -32 -302 0
-304 32 267 0
-304 -32 281 0
304 32 -267 0
304 -32 -281 0
-305 279 -255 0
-305 -279 255 0
305 279 255 0
305 -279 -255 0
-306 32 299 0
-306 -32 305 0
306 32 -299 0
306 -32 -305 0
-307 292 -247 0
-307 -292 247 0
307 292 247 0
307 -292 -247 0
-308 32 278 0
-308 -32 307 0
308 32 -278 0
308 -32 -307 0
-309 -308 306 0
-309 308 -306 0
309 -308 -306 0
309 308 306 0
-310 309 -304 0
-310 -309 304 0
310 309 304 0
310 -309 -304 0
-311 310 -303 0
-311 -310 303 0
311 310 303 0
311 -310 -303 0
-312 311 -295 0
-312 -311 295 0
312 311 295 0
312 -311 -295 0
-313 312 -283 0
-313 -312 283 0
313 312 283 0
313 -312 -283 0
-314 33 283 0
-314 -33 313 0
314 33 -283 0
314 -33 -313 0
-315 291 -278 0
-315 -291 278 0
315 291 278 0
315 -291 -278 0
-316 315 -255 0
-316 -315 255 0
316 315 255 0
316 -315 -255 0
-317 316 -247 0
-317 -316 247 0
317 316 247 0
317 -316 -247 0
-318 32 274 0
-318 -32 317 0
318 32 -274 0
318 -32 -317 0
-319 300 -286 0
-319 -300 286 0
319 300 286 0
319 -300 -286 0
-320 32 291 0
-320 -32 319 0
320 32 -291 0
320 -32 -319 0
-321 -320 318 0
-321 320 -318 0
321 -320 -318 0
321 320 318 0
-322 321 -308 0
-322 -321 308 0
322 321 308 0
322 -321 -308 0
-323 322 -304 0
-323 -322 304 0
323 322 304 0
323 -322 -304 0
-324 323 -303 0
-324 -323 303 0
324 323 303 0
324 -323 -303 0
-325 33 318 0
-325 -33 324 0
325 33 -318 0
325 -33 -324 0
-326 -320 306 0
-326 320 -306 0
326 -320 -306 0
326 320 306 0
-327 326 -283 0
-327 -326 283 0
327 326 283 0
327 -326 -283 0
-328 33 303 0
-328 -33 327 0
328 33 -303 0
328 -33 -327 0
-329 -328 325 0
-329 328 -325 0
329 -328 -325 0
329 328 325 0
-330 329 -314 0
-330 -329 314 0
330 329 314 0
330 -329 -314 0
-331 34 314 0
-331 -34 330 0
331 34 -314 0
331 -34 -330 0
-332 -331 -17 0
-332 331 17 0
-333 324 -295 0
-333 -324 295 0
333 324 295 0
333 -324 -295 0
-334 33 295 0
-334 -33 333 0
334 33 -295 0
334 -33 -333 0
-335 318 -308 0
-335 -318 308 0
335 318 308 0
335 -318 -308 0
-336 335 -304 0
-336 -335 304 0
336 335 304 0
336 -335 -304 0
-337 336 -283 0
-337 -336 283 0
337 336 283 0
337 -336 -283 0
-338 33 308 0
-338 -33 337 0
338 33 -308 0
338 -33 -337 0
-339 338 -328 0
-339 -338 328 0
339 338 328 0
339 -338 -328 0
-340 339 -334 0
-340 -339 334 0
340 339 334 0
340 -339 -334 0
-341 340 -314 0
-341 -340 314 0
341 340 314 0
341 -340 -314 0
-342 34 334 0
-342 -34 341 0
342 34 -334 0
342 -34 -341 0
-343 -342 -16 0
-343 342 16 0
-344 320 -304 0
-344 -320 304 0
344 320 304 0
344 -320 -304 0
-345 344 -303 0
-345 -344 303 0
345 344 303 0
345 -344 -303 0
-346 345 -295 0
-346 -345 295 0
346 345 295 0
346 -345 -295 0
-347 346 -283 0
-347 -346 283 0
347 346 283 0
347 -346 -283 0
-348 33 320 0
-348 -33 347 0
348 33 -320 0
348 -33 -347 0
-349 318 -306 0
-349 -318 306 0
349 318 306 0
349 -318 -306 0
-350 349 -295 0
-350 -349 295 0
350 349 295 0
350 -349 -295 0
-351 33 304 0
-351 -33 350 0
351 33 -304 0
351 -33 -350 0
-352 -351 348 0
-352 351 -348 0
352 -351 -348 0
352 351 348 0
-353 352 -328 0
-353 -352 328 0
353 352 328 0
353 -352 -328 0
-354 353 -334 0
-354 -353 334 0
354 353 334 0
354 -353 -334 0
-355 34 328 0
-355 -34 354 0
355 34 -328 0
355 -34 -354 0
-356 -355 -15 0
-356 355 15 0
-357 33 306 0
-357 -33 312 0
357 33 -306 0
357 -33 -312 0
-358 357 -338 0
-358 -357 338 0
358 357 338 0
358 -357 -338 0
-359 358 -351 0
-359 -358 351 0
359 358 351 0
359 -358 -351 0
-360 359 -328 0
-360 -359 328 0
360 359 328 0
360 -359 -328 0
-361 34 351 0
-361 -34 360 0
361 34 -351 0
361 -34 -360 0
-362 -361 -14 0
-362 361 14 0
-363 -348 325 0
-363 348 -325 0
363 -348 -325 0
363 348 325 0
-364 363 -338 0
-364 -363 338 0
364 363 338 0
364 -363 -338 0
-365 364 -351 0
-365 -364 351 0
365 364 351 0
365 -364 -351 0
-366 34 338 0
-366 -34 365 0
366 34 -338 0
366 -34 -365 0
-367 -366 -13 0
-367 366 13 0
-368 357 -348 0
-368 -357 348 0
368 357 348 0
368 -357 -348 0
-369 368 -351 0
-369 -368 351 0
369 368 351 0
369 -368 -351 0
-370 369 -328 0
-370 -369 328 0
370 369 328 0
370 -369 -328 0
-371 370 -314 0
-371 -370 314 0
371 370 314 0
371 -370 -314 0
-372 34 348 0
-372 -34 371 0
372 34 -348 0
372 -34 -371 0
-373 -372 -12 0
-373 372 12 0
-374 -357 325 0
-374 357 -325 0
374 -357 -325 0
374 357 325 0
-375 374 -338 0
-375 -374 338 0
375 374 338 0
375 -374 -338 0
-376 375 -351 0
-376 -375 351 0
376 375 351 0
376 -375 -351 0
-377 376 -334 0
-377 -376 334 0
377 376 334 0
377 -376 -334 0
-378 34 357 0
-378 -34 377 0
378 34 -357 0
378 -34 -377 0
-379 -378 -11 0
-379 378 11 0
-380 363 -351 0
-380 -363 351 0
380 363 351 0
380 -363 -351 0
-381 380 -314 0
-381 -380 314 0
381 380 314 0
381 -380 -314 0
-382 34 325 0
-382 -34 381 0
382 34 -325 0
382 -34 -381 0
-383 -382 -10 0
-383 382 10 0
-384 27 -26 0
-384 -27 26 0
-385 -34 0
-385 -175 0
-386 175 34 0
-386 -175 -34 0
-387 -33 0
-387 386 0
-388 -175 0
-388 387 0
389 385 388 0
-390 -175 -33 0
-390 175 33 0
-391 386 0
-391 390 0
-392 -32 0
-392 391 0
-393 -175 0
-393 392 0
394 -389 393 0
-395 -175 -32 0
-395 175 32 0
-396 391 0
-396 395 0
-397 -31 0
-397 396 0
-398 -175 0
-398 397 0
399 -394 398 0
-400 -175 -31 0
-400 175 31 0
-401 396 0
-401 400 0
-402 -30 0
-402 401 0
-403 -175 0
-403 402 0
404 -399 403 0
-405 -175 -30 0
-405 175 30 0
-406 401 0
-406 405 0
-407 -29 0
-407 406 0
-408 -175 0
-408 407 0
409 -404 408 0
-410 -175 -29 0
-410 175 29 0
-411 406 0
-411 410 0
-412 -28 0
-412 411 0
-413 -175 0
-413 412 0
414 -409 413 0
-415 -175 -28 0
-415 175 28 0
-416 411 0
-416 415 0
-417 -27 0
-417 416 0
418 -414 417 0
-419 -175 0
-419 -418 0
-420 384 0
-420 419 0
-421 383 0
-421 420 0
-422 379 0
-422 421 0
-423 373 0
-423 422 0
-424 367 0
-424 423 0
-425 362 0
-425 424 0
-426 356 0
-426 425 0
-427 343 0
-427 426 0
-428 332 0
-428 427 0
429 184 428 0
-430 162 0
-430 -429 0
-431 1 0
-431 430 0
-432 -111 -43 0
-432 111 43 0
-433 1 0
-433 432 0
-434 -112 -44 0
-434 112 44 0
-435 433 0
-435 434 0
-436 -113 -45 0
-436 113 45 0
-437 435 0
-437 436 0
-438 -114 -46 0
-438 114 46 0
-439 437 0
-439 438 0
-440 -115 -47 0
-440 115 47 0
-441 439 0
-441 440 0
-442 -116 -48 0
-442 116 48 0
-443 441 0
-443 442 0
-444 -117 -49 0
-444 117 49 0
-445 443 0
-445 444 0
-446 -118 -50 0
-446 118 50 0
-447 445 0
-447 446 0
-448 -119 -51 0
-448 119 51 0
-449 447 0
-449 448 0
-450 -120 -52 0
-450 120 52 0
-451 449 0
-451 450 0
-452 -121 -53 0
-452 121 53 0
-453 451 0
-453 452 0
-454 -122 -54 0
-454 122 54 0
-455 453 0
-455 454 0
-456 -123 -55 0
-456 123 55 0
-457 455 0
-457 456 0
-458 -124 -56 0
-458 124 56 0
-459 457 0
-459 458 0
-460 -125 -57 0
-460 125 57 0
-461 459 0
-461 460 0
-462 -126 -58 0
-462 126 58 0
-463 461 0
-463 462 0
-464 151 -59 0
-464 -151 59 0
-465 463 0
-465 464 0
-466 25 -16 0
-466 -25 16 0
466 25 16 0
466 -25 -16 0
-467 24 -15 0
-467 -24 15 0
467 24 15 0
467 -24 -15 0
-468 23 -14 0
-468 -23 14 0
468 23 14 0
468 -23 -14 0
-469 22 -13 0
-469 -22 13 0
469 22 13 0
469 -22 -13 0
-470 21 -12 0
-470 -21 12 0
470 21 12 0
470 -21 -12 0
-471 20 -11 0
-471 -20 11 0
471 20 11 0
471 -20 -11 0
-472 19 -10 0
-472 -19 10 0
472 19 10 0
472 -19 -10 0
-473 14 -13 0
-473 -14 13 0
473 14 13 0
473 -14 -13 0
-474 473 15 0
-474 -473 -15 0
474 473 -15 0
474 -473 15 0
-475 474 17 0
-475 -474 -17 0
475 474 -17 0
475 -474 17 0
-476 475 18 0
-476 -475 -18 0
476 475 -18 0
476 -475 18 0
-477 -175 0
-477 476 0
477 175 -476 0
-478 472 0
-478 477 0
478 -472 -477 0
-479 471 0
-479 478 0
479 -471 -478 0
-480 470 0
-480 479 0
480 -470 -479 0
-481 469 0
-481 480 0
481 -469 -480 0
-482 468 0
-482 481 0
482 -468 -481 0
-483 467 0
-483 482 0
483 -467 -482 0
-484 466 0
-484 483 0
484 -466 -483 0
-485 -4 0
-485 101 0
485 4 -101 0
-486 -5 0
-486 485 0
486 5 -485 0
-487 -6 0
-487 486 0
487 6 -486 0
-488 -7 0
-488 487 0
488 7 -487 0
-489 -8 0
-489 488 0
489 8 -488 0
-490 -9 0
-490 489 0
490 9 -489 0
-491 -175 0
-491 490 0
491 175 -490 0
-492 -484 0
-492 491 0
492 484 -491 0
-493 -27 0
-493 492 0
493 27 -492 0
-494 493 -60 0
-494 -493 60 0
-495 465 0
-495 494 0
-496 -28 27 0
-496 28 -27 0
496 -28 -27 0
496 28 27 0
-497 492 0
-497 -496 0
497 -492 496 0
-498 497 -61 0
-498 -497 61 0
-499 495 0
-499 498 0
-500 27 0
-500 28 0
500 -27 -28 0
-501 500 -29 0
-501 -500 29 0
501 500 29 0
501 -500 -29 0
-502 492 0
-502 -501 0
502 -492 501 0
-503 502 -62 0
-503 -502 62 0
-504 499 0
-504 503 0
-505 29 0
-505 500 0
505 -29 -500 0
-506 505 -30 0
-506 -505 30 0
506 505 30 0
506 -505 -30 0
-507 492 0
-507 -506 0
507 -492 506 0
-508 507 -63 0
-508 -507 63 0
-509 504 0
-509 508 0
-510 30 0
-510 505 0
510 -30 -505 0
-511 510 -31 0
-511 -510 31 0
511 510 31 0
511 -510 -31 0
-512 492 0
-512 -511 0
512 -492 511 0
-513 512 -64 0
-513 -512 64 0
-514 509 0
-514 513 0
-515 31 0
-515 510 0
515 -31 -510 0
-516 515 -32 0
-516 -515 32 0
516 515 32 0
516 -515 -32 0
-517 492 0
-517 -516 0
517 -492 516 0
-518 517 -65 0
-518 -517 65 0
-519 514 0
-519 518 0
-520 32 0
-520 515 0
520 -32 -515 0
-521 520 -33 0
-521 -520 33 0
521 520 33 0
521 -520 -33 0
-522 492 0
-522 -521 0
522 -492 521 0
-523 522 -66 0
-523 -522 66 0
-524 519 0
-524 523 0
-525 33 0
-525 520 0
525 -33 -520 0
-526 525 -34 0
-526 -525 34 0
526 525 34 0
526 -525 -34 0
-527 492 0
-527 -526 0
527 -492 526 0
-528 527 -67 0
-528 -527 67 0
-529 524 0
-529 528 0
-530 -35 0
-530 -36 0
530 35 36 0
-531 -37 0
-531 -38 0
531 37 38 0
-532 530 0
-532 531 0
532 -530 -531 0
-533 -39 0
-533 -40 0
533 39 40 0
-534 -41 0
-534 -42 0
534 41 42 0
-535 533 0
-535 534 0
535 -533 -534 0
-536 532 0
-536 535 0
536 -532 -535 0
-537 -51 0
-537 -52 0
537 51 52 0
-538 -53 0
-538 -54 0
538 53 54 0
-539 537 0
-539 538 0
539 -537 -538 0
-540 -55 0
-540 -56 0
540 55 56 0
-541 -57 0
-541 -58 0
541 57 58 0
-542 540 0
-542 541 0
542 -540 -541 0
-543 539 0
-543 542 0
543 -539 -542 0
-544 -50 46 0
-544 50 -46 0
544 -50 -46 0
544 50 46 0
-545 544 47 0
-545 -544 -47 0
545 544 -47 0
545 -544 47 0
-546 545 48 0
-546 -545 -48 0
546 545 -48 0
546 -545 48 0
-547 546 -51 0
-547 -546 51 0
547 546 51 0
547 -546 -51 0
-548 -52 -43 0
-548 52 43 0
548 -52 43 0
548 52 -43 0
-549 -547 0
-549 -548 0
549 547 548 0
-550 -53 -44 0
-550 53 44 0
550 -53 44 0
550 53 -44 0
-551 -54 -45 0
-551 54 45 0
551 -54 45 0
551 54 -45 0
-552 -550 0
-552 -551 0
552 550 551 0
-553 549 0
-553 552 0
553 -549 -552 0
-554 -55 -46 0
-554 55 46 0
554 -55 46 0
554 55 -46 0
-555 -56 -47 0
-555 56 47 0
555 -56 47 0
555 56 -47 0
-556 -554 0
-556 -555 0
556 554 555 0
-557 -57 -48 0
-557 57 48 0
557 -57 48 0
557 57 -48 0
-558 -58 -49 0
-558 58 49 0
558 -58 49 0
558 58 -49 0
-559 -557 0
-559 -558 0
559 557 558 0
-560 556 0
-560 559 0
560 -556 -559 0
-561 553 0
-561 560 0
561 -553 -560 0
-562 -543 0
-562 561 0
562 543 -561 0
563 -59 -562 0
564 -536 -563 0
565 43 -546 0
566 44 45 0
567 -565 -566 0
568 46 47 0
569 48 49 0
570 -568 -569 0
571 -567 -570 0
572 543 -571 0
-573 -564 0
-573 -572 0
-574 -60 0
-574 -61 0
-575 -62 0
-575 574 0
-576 -63 0
-576 575 0
-577 -64 0
-577 576 0
-578 -65 0
-578 577 0
-579 -66 0
-579 578 0
-580 -67 0
-580 579 0
-581 -53 0
-581 537 0
581 53 -537 0
-582 -54 0
-582 581 0
582 54 -581 0
-583 -55 0
-583 582 0
583 55 -582 0
-584 -56 0
-584 583 0
584 56 -583 0
-585 -57 0
-585 584 0
585 57 -584 0
-586 -58 0
-586 585 0
586 58 -585 0
-587 -43 0
-587 -44 0
-588 -45 0
-588 587 0
-589 -46 0
-589 588 0
-590 -47 0
-590 589 0
-591 -48 0
-591 590 0
-592 -49 0
-592 591 0
-593 -50 0
-593 592 0
-594 586 0
-594 593 0
-595 580 0
-595 594 0
-596 60 -58 0
-596 -60 -57 0
596 60 58 0
596 -60 57 0
-597 60 -56 0
-597 -60 -55 0
597 60 56 0
597 -60 55 0
-598 60 -54 0
-598 -60 -53 0
598 60 54 0
598 -60 53 0
-599 60 -55 0
-599 -60 -54 0
599 60 55 0
599 -60 54 0
-600 -599 598 0
-600 599 -598 0
600 -599 -598 0
600 599 598 0
-601 600 -597 0
-601 -600 597 0
601 600 597 0
601 -600 -597 0
-602 601 -596 0
-602 -601 596 0
602 601 596 0
602 -601 -596 0
-603 60 -52 0
-603 -60 -51 0
603 60 52 0
603 -60 51 0
-604 61 603 0
-604 -61 602 0
604 61 -603 0
604 -61 -602 0
-605 61 597 0
-605 -61 598 0
605 61 -597 0
605 -61 -598 0
-606 62 605 0
-606 -62 604 0
606 62 -605 0
606 -62 -604 0
-607 61 596 0
-607 -61 597 0
607 61 -596 0
607 -61 -597 0
-608 61 598 0
-608 -61 603 0
608 61 -598 0
608 -61 -603 0
-609 60 -53 0
-609 -60 -52 0
609 60 53 0
609 -60 52 0
-610 61 599 0
-610 -61 609 0
610 61 -599 0
610 -61 -609 0
-611 -610 608 0
-611 610 -608 0
611 -610 -608 0
611 610 608 0
-612 611 -605 0
-612 -611 605 0
612 611 605 0
612 -611 -605 0
-613 612 -607 0
-613 -612 607 0
613 612 607 0
613 -612 -607 0
-614 62 608 0
-614 -62 613 0
614 62 -608 0
614 -62 -613 0
-615 55 -54 0
-615 -55 54 0
615 55 54 0
615 -55 -54 0
-616 615 56 0
-616 -615 -56 0
616 615 -56 0
616 -615 56 0
-617 616 58 0
-617 -616 -58 0
617 616 -58 0
617 -616 58 0
-618 60 -51 0
-618 -60 617 0
618 60 51 0
618 -60 -617 0
-619 61 609 0
-619 -61 618 0
619 61 -609 0
619 -61 -618 0
-620 -619 604 0
-620 619 -604 0
620 -619 -604 0
620 619 604 0
-621 620 -608 0
-621 -620 608 0
621 620 608 0
621 -620 -608 0
-622 621 -605 0
-622 -621 605 0
622 621 605 0
622 -621 -605 0
-623 62 604 0
-623 -62 622 0
623 62 -604 0
623 -62 -622 0
-624 60 -57 0
-624 -60 -56 0
624 60 57 0
624 -60 56 0
-625 61 624 0
-625 -61 599 0
625 61 -624 0
625 -61 -599 0
-626 619 -608 0
-626 -619 608 0
626 619 608 0
626 -619 -608 0
-627 626 -610 0
-627 -626 610 0
627 626 610 0
627 -626 -610 0
-628 627 -625 0
-628 -627 625 0
628 627 625 0
628 -627 -625 0
-629 62 619 0
-629 -62 628 0
629 62 -619 0
629 -62 -628 0
-630 -629 623 0
-630 629 -623 0
630 -629 -623 0
630 629 623 0
-631 630 -614 0
-631 -630 614 0
631 630 614 0
631 -630 -614 0
-632 631 -606 0
-632 -631 606 0
632 631 606 0
632 -631 -606 0
-633 63 606 0
-633 -63 632 0
633 63 -606 0
633 -63 -632 0
-634 62 607 0
-634 -62 608 0
634 62 -607 0
634 -62 -608 0
-635 62 625 0
-635 -62 619 0
635 62 -625 0
635 -62 -619 0
-636 -635 614 0
-636 635 -614 0
636 -635 -614 0
636 635 614 0
-637 636 -634 0
-637 -636 634 0
637 636 634 0
637 -636 -634 0
-638 63 623 0
-638 -63 637 0
638 63 -623 0
638 -63 -637 0
-639 609 -598 0
-639 -609 598 0
639 609 598 0
639 -609 -598 0
-640 639 -599 0
-640 -639 599 0
640 639 599 0
640 -639 -599 0
-641 640 -624 0
-641 -640 624 0
641 640 624 0
641 -640 -624 0
-642 61 618 0
-642 -61 641 0
642 61 -618 0
642 -61 -641 0
-643 62 610 0
-643 -62 642 0
643 62 -610 0
643 -62 -642 0
-644 642 -604 0
-644 -642 604 0
644 642 604 0
644 -642 -604 0
-645 644 -619 0
-645 -644 619 0
645 644 619 0
645 -644 -619 0
-646 645 -610 0
-646 -645 610 0
646 645 610 0
646 -645 -610 0
-647 62 642 0
-647 -62 646 0
647 62 -642 0
647 -62 -646 0
-648 647 -623 0
-648 -647 623 0
648 647 623 0
648 -647 -623 0
-649 648 -629 0
-649 -648 629 0
649 648 629 0
649 -648 -629 0
-650 649 -643 0
-650 -649 643 0
650 649 643 0
650 -649 -643 0
-651 63 643 0
-651 -63 650 0
651 63 -643 0
651 -63 -650 0
-652 -651 638 0
-652 651 -638 0
652 -651 -638 0
652 651 638 0
-653 652 -633 0
-653 -652 633 0
653 652 633 0
653 -652 -633 0
-654 -643 614 0
-654 643 -614 0
654 -643 -614 0
654 643 614 0
-655 654 -606 0
-655 -654 606 0
655 654 606 0
655 -654 -606 0
-656 655 -634 0
-656 -655 634 0
656 655 634 0
656 -655 -634 0
-657 63 634 0
-657 -63 656 0
657 63 -634 0
657 -63 -656 0
-658 64 657 0
-658 -64 653 0
658 64 -657 0
658 -64 -653 0
-659 647 -606 0
-659 -647 606 0
659 647 606 0
659 -647 -606 0
-660 659 -635 0
-660 -659 635 0
660 659 635 0
660 -659 -635 0
-661 660 -634 0
-661 -660 634 0
661 660 634 0
661 -660 -634 0
-662 63 629 0
-662 -63 661 0
662 63 -629 0
662 -63 -661 0
-663 662 -651 0
-663 -662 651 0
663 662 651 0
663 -662 -651 0
-664 663 -633 0
-664 -663 633 0
664 663 633 0
664 -663 -633 0
-665 664 -657 0
-665 -664 657 0
665 664 657 0
665 -664 -657 0
-666 64 633 0
-666 -64 665 0
666 64 -633 0
666 -64 -665 0
-667 629 -614 0
-667 -629 614 0
667 629 614 0
667 -629 -614 0
-668 667 -643 0
-668 -667 643 0
668 667 643 0
668 -667 -643 0
-669 668 -635 0
-669 -668 635 0
669 668 635 0
669 -668 -635 0
-670 63 635 0
-670 -63 669 0
670 63 -635 0
670 -63 -669 0
-671 648 -643 0
-671 -648 643 0
671 648 643 0
671 -648 -643 0
-672 671 -606 0
-672 -671 606 0
672 671 606 0
672 -671 -606 0
-673 672 -634 0
-673 -672 634 0
673 672 634 0
673 -672 -634 0
-674 63 614 0
-674 -63 673 0
674 63 -614 0
674 -63 -673 0
-675 -674 638 0
-675 674 -638 0
675 -674 -638 0
675 674 638 0
-676 675 -651 0
-676 -675 651 0
676 675 651 0
676 -675 -651 0
-677 676 -670 0
-677 -676 670 0
677 676 670 0
677 -676 -670 0
-678 64 651 0
-678 -64 677 0
678 64 -651 0
678 -64 -677 0
-679 629 -606 0
-679 -629 606 0
679 629 606 0
679 -629 -606 0
-680 679 -635 0
-680 -679 635 0
680 679 635 0
680 -679 -635 0
-681 63 647 0
-681 -63 680 0
681 63 -647 0
681 -63 -680 0
-682 681 -638 0
-682 -681 638 0
682 681 638 0
682 -681 -638 0
-683 682 -651 0
-683 -682 651 0
683 682 651 0
683 -682 -651 0
-684 683 -657 0
-684 -683 657 0
684 683 657 0
684 -683 -657 0
-685 64 681 0
-685 -64 684 0
685 64 -681 0
685 -64 -684 0
-686 681 -662 0
-686 -681 662 0
686 681 662 0
686 -681 -662 0
-687 686 -674 0
-687 -686 674 0
687 686 674 0
687 -686 -674 0
-688 687 -633 0
-688 -687 633 0
688 687 633 0
688 -687 -633 0
-689 64 674 0
-689 -64 688 0
689 64 -674 0
689 -64 -688 0
-690 -689 685 0
-690 689 -685 0
690 -689 -685 0
690 689 685 0
-691 690 -678 0
-691 -690 678 0
691 690 678 0
691 -690 -678 0
-692 691 -666 0
-692 -691 666 0
692 691 666 0
692 -691 -666 0
-693 692 -658 0
-693 -692 658 0
693 692 658 0
693 -692 -658 0
-694 65 658 0
-694 -65 693 0
694 65 -658 0
694 -65 -693 0
-695 681 -674 0
-695 -681 674 0
695 681 674 0
695 -681 -674 0
-696 695 -651 0
-696 -695 651 0
696 695 651 0
696 -695 -651 0
-697 64 670 0
-697 -64 696 0
697 64 -670 0
697 -64 -696 0
-698 -662 638 0
-698 662 -638 0
698 -662 -638 0
698 662 638 0
-699 698 -674 0
-699 -698 674 0
699 698 674 0
699 -698 -674 0
-700 699 -633 0
-700 -699 633 0
700 699 633 0
700 -699 -633 0
-701 700 -657 0
-701 -700 657 0
701 700 657 0
701 -700 -657 0
-702 64 662 0
-702 -64 701 0
702 64 -662 0
702 -64 -701 0
-703 702 -666 0
-703 -702 666 0
703 702 666 0
703 -702 -666 0
-704 703 -697 0
-704 -703 697 0
704 703 697 0
704 -703 -697 0
-705 704 -658 0
-705 -704 658 0
705 704 658 0
705 -704 -658 0
-706 65 697 0
-706 -65 705 0
706 65 -697 0
706 -65 -705 0
-707 682 -662 0
-707 -682 662 0
707 682 662 0
707 -682 -662 0
-708 707 -651 0
-708 -707 651 0
708 707 651 0
708 -707 -651 0
-709 708 -670 0
-709 -708 670 0
709 708 670 0
709 -708 -670 0
-710 64 638 0
-710 -64 709 0
710 64 -638 0
710 -64 -709 0
-711 710 -678 0
-711 -710 678 0
711 710 678 0
711 -710 -678 0
-712 711 -666 0
-712 -711 666 0
712 711 666 0
712 -711 -666 0
-713 712 -697 0
-713 -712 697 0
713 712 697 0
713 -712 -697 0
-714 65 666 0
-714 -65 713 0
714 65 -666 0
714 -65 -713 0
-715 65 678 0
-715 -65 692 0
715 65 -678 0
715 -65 -692 0
-716 690 -666 0
-716 -690 666 0
716 690 666 0
716 -690 -666 0
-717 65 710 0
-717 -65 716 0
717 65 -710 0
717 -65 -716 0
-718 703 -658 0
-718 -703 658 0
718 703 658 0
718 -703 -658 0
-719 65 689 0
-719 -65 718 0
719 65 -689 0
719 -65 -718 0
-720 -719 717 0
-720 719 -717 0
720 -719 -717 0
720 719 717 0
-721 720 -715 0
-721 -720 715 0
721 720 715 0
721 -720 -715 0
-722 721 -714 0
-722 -721 714 0
722 721 714 0
722 -721 -714 0
-723 722 -706 0
-723 -722 706 0
723 722 706 0
723 -722 -706 0
-724 723 -694 0
-724 -723 694 0
724 723 694 0
724 -723 -694 0
-725 66 694 0
-725 -66 724 0
725 66 -694 0
725 -66 -724 0
-726 702 -689 0
-726 -702 689 0
726 702 689 0
726 -702 -689 0
-727 726 -666 0
-727 -726 666 0
727 726 666 0
727 -726 -666 0
-728 727 -658 0
-728 -727 658 0
728 727 658 0
728 -727 -658 0
-729 65 685 0
-729 -65 728 0
729 65 -685 0
729 -65 -728 0
-730 711 -697 0
-730 -711 697 0
730 711 697 0
730 -711 -697 0
-731 65 702 0
-731 -65 730 0
731 65 -702 0
731 -65 -730 0
-732 -731 729 0
-732 731 -729 0
732 -731 -729 0
732 731 729 0
-733 732 -719 0
-733 -732 719 0
733 732 719 0
733 -732 -719 0
-734 733 -715 0
-734 -733 715 0
734 733 715 0
734 -733 -715 0
-735 734 -714 0
-735 -734 714 0
735 734 714 0
735 -734 -714 0
-736 66 729 0
-736 -66 735 0
736 66 -729 0
736 -66 -735 0
-737 -731 717 0
-737 731 -717 0
737 -731 -717 0
737 731 717 0
-738 737 -694 0
-738 -737 694 0
738 737 694 0
738 -737 -694 0
-739 66 714 0
-739 -66 738 0
739 66 -714 0
739 -66 -738 0
-740 -739 736 0
-740 739 -736 0
740 -739 -736 0
740 739 736 0
-741 740 -725 0
-741 -740 725 0
741 740 725 0
741 -740 -725 0
-742 67 725 0
-742 -67 741 0
742 67 -725 0
742 -67 -741 0
-743 -742 -50 0
-743 742 50 0
-744 735 -706 0
-744 -735 706 0
744 735 706 0
744 -735 -706 0
-745 66 706 0
-745 -66 744 0
745 66 -706 0
745 -66 -744 0
-746 729 -719 0
-746 -729 719 0
746 729 719 0
746 -729 -719 0
-747 746 -715 0
-747 -746 715 0
747 746 715 0
747 -746 -715 0
-748 747 -694 0
-748 -747 694 0
748 747 694 0
748 -747 -694 0
-749 66 719 0
-749 -66 748 0
749 66 -719 0
749 -66 -748 0
-750 749 -739 0
-750 -749 739 0
750 749 739 0
750 -749 -739 0
-751 750 -745 0
-751 -750 745 0
751 750 745 0
751 -750 -745 0
-752 751 -725 0
-752 -751 725 0
752 751 725 0
752 -751 -725 0
-753 67 745 0
-753 -67 752 0
753 67 -745 0
753 -67 -752 0
-754 -753 -49 0
-754 753 49 0
-755 731 -715 0
-755 -731 715 0
755 731 715 0
755 -731 -715 0
-756 755 -714 0
-756 -755 714 0
756 755 714 0
756 -755 -714 0
-757 756 -706 0
-757 -756 706 0
757 756 706 0
757 -756 -706 0
-758 757 -694 0
-758 -757 694 0
758 757 694 0
758 -757 -694 0
-759 66 731 0
-759 -66 758 0
759 66 -731 0
759 -66 -758 0
-760 729 -717 0
-760 -729 717 0
760 729 717 0
760 -729 -717 0
-761 760 -706 0
-761 -760 706 0
761 760 706 0
761 -760 -706 0
-762 66 715 0
-762 -66 761 0
762 66 -715 0
762 -66 -761 0
-763 -762 759 0
-763 762 -759 0
763 -762 -759 0
763 762 759 0
-764 763 -739 0
-764 -763 739 0
764 763 739 0
764 -763 -739 0
-765 764 -745 0
-765 -764 745 0
765 764 745 0
765 -764 -745 0
-766 67 739 0
-766 -67 765 0
766 67 -739 0
766 -67 -765 0
-767 -766 -48 0
-767 766 48 0
-768 66 717 0
-768 -66 723 0
768 66 -717 0
768 -66 -723 0
-769 768 -749 0
-769 -768 749 0
769 768 749 0
769 -768 -749 0
-770 769 -762 0
-770 -769 762 0
770 769 762 0
770 -769 -762 0
-771 770 -739 0
-771 -770 739 0
771 770 739 0
771 -770 -739 0
-772 67 762 0
-772 -67 771 0
772 67 -762 0
772 -67 -771 0
-773 -772 -47 0
-773 772 47 0
-774 -759 736 0
-774 759 -736 0
774 -759 -736 0
774 759 736 0
-775 774 -749 0
-775 -774 749 0
775 774 749 0
775 -774 -749 0
-776 775 -762 0
-776 -775 762 0
776 775 762 0
776 -775 -762 0
-777 67 749 0
-777 -67 776 0
777 67 -749 0
777 -67 -776 0
-778 -777 -46 0
-778 777 46 0
-779 768 -759 0
-779 -768 759 0
779 768 759 0
779 -768 -759 0
-780 779 -762 0
-780 -779 762 0
780 779 762 0
780 -779 -762 0
-781 780 -739 0
-781 -780 739 0
781 780 739 0
781 -780 -739 0
-782 781 -725 0
-782 -781 725 0
782 781 725 0
782 -781 -725 0
-783 67 759 0
-783 -67 782 0
783 67 -759 0
783 -67 -782 0
-784 -783 -45 0
-784 783 45 0
-785 -768 736 0
-785 768 -736 0
785 -768 -736 0
785 768 736 0
-786 785 -749 0
-786 -785 749 0
786 785 749 0
786 -785 -749 0
-787 786 -762 0
-787 -786 762 0
787 786 762 0
787 -786 -762 0
-788 787 -745 0
-788 -787 745 0
788 787 745 0
788 -787 -745 0
-789 67 768 0
-789 -67 788 0
789 67 -768 0
789 -67 -788 0
-790 -789 -44 0
-790 789 44 0
-791 774 -762 0
-791 -774 762 0
791 774 762 0
791 -774 -762 0
-792 791 -725 0
-792 -791 725 0
792 791 725 0
792 -791 -725 0
-793 67 736 0
-793 -67 792 0
793 67 -736 0
793 -67 -792 0
-794 -793 -43 0
-794 793 43 0
-795 60 -59 0
-795 -60 59 0
-796 -67 0
-796 -586 0
-797 586 67 0
-797 -586 -67 0
-798 -66 0
-798 797 0
-799 -586 0
-799 798 0
800 796 799 0
-801 -586 -66 0
-801 586 66 0
-802 797 0
-802 801 0
-803 -65 0
-803 802 0
-804 -586 0
-804 803 0
805 -800 804 0
-806 -586 -65 0
-806 586 65 0
-807 802 0
-807 806 0
-808 -64 0
-808 807 0
-809 -586 0
-809 808 0
810 -805 809 0
-811 -586 -64 0
-811 586 64 0
-812 807 0
-812 811 0
-813 -63 0
-813 812 0
-814 -586 0
-814 813 0
815 -810 814 0
-816 -586 -63 0
-816 586 63 0
-817 812 0
-817 816 0
-818 -62 0
-818 817 0
-819 -586 0
-819 818 0
820 -815 819 0
-821 -586 -62 0
-821 586 62 0
-822 817 0
-822 821 0
-823 -61 0
-823 822 0
-824 -586 0
-824 823 0
825 -820 824 0
-826 -586 -61 0
-826 586 61 0
-827 822 0
-827 826 0
-828 -60 0
-828 827 0
829 -825 828 0
-830 -586 0
-830 -829 0
-831 795 0
-831 830 0
-832 794 0
-832 831 0
-833 790 0
-833 832 0
-834 784 0
-834 833 0
-835 778 0
-835 834 0
-836 773 0
-836 835 0
-837 767 0
-837 836 0
-838 754 0
-838 837 0
-839 743 0
-839 838 0
840 595 839 0
-841 573 0
-841 -840 0
-842 1 0
-842 841 0
843 68 69 0
844 70 71 0
845 -843 -844 0
846 72 73 0
847 74 75 0
848 -846 -847 0
849 -845 -848 0
-850 -84 0
-850 -85 0
850 84 85 0
-851 -86 0
-851 -87 0
-852 850 0
-852 851 0
-853 -88 0
-853 -89 0
-854 -90 0
-854 -91 0
-855 853 0
-855 854 0
-856 852 0
-856 855 0
-857 -83 79 0
-857 83 -79 0
857 -83 -79 0
857 83 79 0
-858 857 80 0
-858 -857 -80 0
858 857 -80 0
858 -857 80 0
-859 858 81 0
-859 -858 -81 0
859 858 -81 0
859 -858 81 0
-860 859 -84 0
-860 -859 84 0
-861 -85 -76 0
-861 85 76 0
862 860 861 0
-863 -86 -77 0
-863 86 77 0
-864 -87 -78 0
-864 87 78 0
865 863 864 0
866 -862 -865 0
-867 -88 -79 0
-867 88 79 0
-868 -89 -80 0
-868 89 80 0
869 867 868 0
-870 -90 -81 0
-870 90 81 0
-871 -91 -82 0
-871 91 82 0
872 870 871 0
873 -869 -872 0
874 -866 -873 0
875 856 -874 0
876 -92 -875 0
877 -849 -876 0
878 76 -859 0
879 77 78 0
880 -878 -879 0
881 79 80 0
882 81 82 0
883 -881 -882 0
884 -880 -883 0
885 856 -884 0
-886 -877 0
-886 -885 0
-887 -93 0
-887 -94 0
-888 -95 0
-888 887 0
-889 -96 0
-889 888 0
-890 -97 0
-890 889 0
-891 -98 0
-891 890 0
-892 -99 0
-892 891 0
-893 -100 0
-893 892 0
-894 -86 0
-894 850 0
894 86 -850 0
-895 -87 0
-895 894 0
895 87 -894 0
-896 -88 0
-896 895 0
896 88 -895 0
-897 -89 0
-897 896 0
897 89 -896 0
-898 -90 0
-898 897 0
898 90 -897 0
-899 -91 0
-899 898 0
899 91 -898 0
-900 -76 0
-900 -77 0
-901 -78 0
-901 900 0
-902 -79 0
-902 901 0
-903 -80 0
-903 902 0
-904 -81 0
-904 903 0
-905 -82 0
-905 904 0
-906 -83 0
-906 905 0
-907 899 0
-907 906 0
-908 893 0
-908 907 0
-909 93 -91 0
-909 -93 -90 0
909 93 91 0
909 -93 90 0
-910 93 -89 0
-910 -93 -88 0
910 93 89 0
910 -93 88 0
-911 93 -87 0
-911 -93 -86 0
911 93 87 0
911 -93 86 0
-912 93 -88 0
-912 -93 -87 0
912 93 88 0
912 -93 87 0
-913 -912 911 0
-913 912 -911 0
913 -912 -911 0
913 912 911 0
-914 913 -910 0
-914 -913 910 0
914 913 910 0
914 -913 -910 0
-915 914 -909 0
-915 -914 909 0
915 914 909 0
915 -914 -909 0
-916 93 -85 0
-916 -93 -84 0
916 93 85 0
916 -93 84 0
-917 94 916 0
-917 -94 915 0
917 94 -916 0
917 -94 -915 0
-918 94 910 0
-918 -94 911 0
918 94 -910 0
918 -94 -911 0
-919 95 918 0
-919 -95 917 0
919 95 -918 0
919 -95 -917 0
-920 94 909 0
-920 -94 910 0
920 94 -909 0
920 -94 -910 0
-921 94 911 0
-921 -94 916 0
921 94 -911 0
921 -94 -916 0
-922 93 -86 0
-922 -93 -85 0
922 93 86 0
922 -93 85 0
-923 94 912 0
-923 -94 922 0
923 94 -912 0
923 -94 -922 0
-924 -923 921 0
-924 923 -921 0
924 -923 -921 0
924 923 921 0
-925 924 -918 0
-925 -924 918 0
925 924 918 0
925 -924 -918 0
-926 925 -920 0
-926 -925 920 0
926 925 920 0
926 -925 -920 0
-927 95 921 0
-927 -95 926 0
927 95 -921 0
927 -95 -926 0
-928 88 -87 0
-928 -88 87 0
928 88 87 0
928 -88 -87 0
-929 928 89 0
-929 -928 -89 0
929 928 -89 0
929 -928 89 0
-930 929 91 0
-930 -929 -91 0
930 929 -91 0
930 -929 91 0
-931 93 -84 0
-931 -93 930 0
931 93 84 0
931 -93 -930 0
-932 94 922 0
-932 -94 931 0
932 94 -922 0
932 -94 -931 0
-933 -932 917 0
-933 932 -917 0
933 -932 -917 0
933 932 917 0
-934 933 -921 0
-934 -933 921 0
934 933 921 0
934 -933 -921 0
-935 934 -918 0
-935 -934 918 0
935 934 918 0
935 -934 -918 0
-936 95 917 0
-936 -95 935 0
936 95 -917 0
936 -95 -935 0
-937 93 -90 0
-937 -93 -89 0
937 93 90 0
937 -93 89 0
-938 94 937 0
-938 -94 912 0
938 94 -937 0
938 -94 -912 0
-939 932 -921 0
-939 -932 921 0
939 932 921 0
939 -932 -921 0
-940 939 -923 0
-940 -939 923 0
940 939 923 0
940 -939 -923 0
-941 940 -938 0
-941 -940 938 0
941 940 938 0
941 -940 -938 0
-942 95 932 0
-942 -95 941 0
942 95 -932 0
942 -95 -941 0
-943 -942 936 0
-943 942 -936 0
943 -942 -936 0
943 942 936 0
-944 943 -927 0
-944 -943 927 0
944 943 927 0
944 -943 -927 0
-945 944 -919 0
-945 -944 919 0
945 944 919 0
945 -944 -919 0
-946 96 919 0
-946 -96 945 0
946 96 -919 0
946 -96 -945 0
-947 95 920 0
-947 -95 921 0
947 95 -920 0
947 -95 -921 0
-948 95 938 0
-948 -95 932 0
948 95 -938 0
948 -95 -932 0
-949 -948 927 0
-949 948 -927 0
949 -948 -927 0
949 948 927 0
-950 949 -947 0
-950 -949 947 0
950 949 947 0
950 -949 -947 0
-951 96 936 0
-951 -96 950 0
951 96 -936 0
951 -96 -950 0
-952 922 -911 0
-952 -922 911 0
952 922 911 0
952 -922 -911 0
-953 952 -912 0
-953 -952 912 0
953 952 912 0
953 -952 -912 0
-954 953 -937 0
-954 -953 937 0
954 953 937 0
954 -953 -937 0
-955 94 931 0
-955 -94 954 0
955 94 -931 0
955 -94 -954 0
-956 95 923 0
-956 -95 955 0
956 95 -923 0
956 -95 -955 0
-957 955 -917 0
-957 -955 917 0
957 955 917 0
957 -955 -917 0
-958 957 -932 0
-958 -957 932 0
958 957 932 0
958 -957 -932 0
-959 958 -923 0
-959 -958 923 0
959 958 923 0
959 -958 -923 0
-960 95 955 0
-960 -95 959 0
960 95 -955 0
960 -95 -959 0
-961 960 -936 0
-961 -960 936 0
961 960 936 0
961 -960 -936 0
-962 961 -942 0
-962 -961 942 0
962 961 942 0
962 -961 -942 0
-963 962 -956 0
-963 -962 956 0
963 962 956 0
963 -962 -956 0
-964 96 956 0
-964 -96 963 0
964 96 -956 0
964 -96 -963 0
-965 -964 951 0
-965 964 -951 0
965 -964 -951 0
965 964 951 0
-966 965 -946 0
-966 -965 946 0
966 965 946 0
966 -965 -946 0
-967 -956 927 0
-967 956 -927 0
967 -956 -927 0
967 956 927 0
-968 967 -919 0
-968 -967 919 0
968 967 919 0
968 -967 -919 0
-969 968 -947 0
-969 -968 947 0
969 968 947 0
969 -968 -947 0
-970 96 947 0
-970 -96 969 0
970 96 -947 0
970 -96 -969 0
-971 97 970 0
-971 -97 966 0
971 97 -970 0
971 -97 -966 0
-972 960 -919 0
-972 -960 919 0
972 960 919 0
972 -960 -919 0
-973 972 -948 0
-973 -972 948 0
973 972 948 0
973 -972 -948 0
-974 973 -947 0
-974 -973 947 0
974 973 947 0
974 -973 -947 0
-975 96 942 0
-975 -96 974 0
975 96 -942 0
975 -96 -974 0
-976 975 -964 0
-976 -975 964 0
976 975 964 0
976 -975 -964 0
-977 976 -946 0
-977 -976 946 0
977 976 946 0
977 -976 -946 0
-978 977 -970 0
-978 -977 970 0
978 977 970 0
978 -977 -970 0
-979 97 946 0
-979 -97 978 0
979 97 -946 0
979 -97 -978 0
-980 942 -927 0
-980 -942 927 0
980 942 927 0
980 -942 -927 0
-981 980 -956 0
-981 -980 956 0
981 980 956 0
981 -980 -956 0
-982 981 -948 0
-982 -981 948 0
982 981 948 0
982 -981 -948 0
-983 96 948 0
-983 -96 982 0
983 96 -948 0
983 -96 -982 0
-984 961 -956 0
-984 -961 956 0
984 961 956 0
984 -961 -956 0
-985 984 -919 0
-985 -984 919 0
985 984 919 0
985 -984 -919 0
-986 985 -947 0
-986 -985 947 0
986 985 947 0
986 -985 -947 0
-987 96 927 0
-987 -96 986 0
987 96 -927 0
987 -96 -986 0
-988 -987 951 0
-988 987 -951 0
988 -987 -951 0
988 987 951 0
-989 988 -964 0
-989 -988 964 0
989 988 964 0
989 -988 -964 0
-990 989 -983 0
-990 -989 983 0
990 989 983 0
990 -989 -983 0
-991 97 964 0
-991 -97 990 0
991 97 -964 0
991 -97 -990 0
-992 942 -919 0
-992 -942 919 0
992 942 919 0
992 -942 -919 0
-993 992 -948 0
-993 -992 948 0
993 992 948 0
993 -992 -948 0
-994 96 960 0
-994 -96 993 0
994 96 -960 0
994 -96 -993 0
-995 994 -951 0
-995 -994 951 0
995 994 951 0
995 -994 -951 0
-996 995 -964 0
-996 -995 964 0
996 995 964 0
996 -995 -964 0
-997 996 -970 0
-997 -996 970 0
997 996 970 0
997 -996 -970 0
-998 97 994 0
-998 -97 997 0
998 97 -994 0
998 -97 -997 0
-999 994 -975 0
-999 -994 975 0
999 994 975 0
999 -994 -975 0
-1000 999 -987 0
-1000 -999 987 0
1000 999 987 0
1000 -999 -987 0
-1001 1000 -946 0
-1001 -1000 946 0
1001 1000 946 0
1001 -1000 -946 0
-1002 97 987 0
-1002 -97 1001 0
1002 97 -987 0
1002 -97 -1001 0
-1003 -1002 998 0
-1003 1002 -998 0
1003 -1002 -998 0
1003 1002 998 0
-1004 1003 -991 0
-1004 -1003 991 0
1004 1003 991 0
1004 -1003 -991 0
-1005 1004 -979 0
-1005 -1004 979 0
1005 1004 979 0
1005 -1004 -979 0
-1006 1005 -971 0
-1006 -1005 971 0
1006 1005 971 0
1006 -1005 -971 0
-1007 98 971 0
-1007 -98 1006 0
1007 98 -971 0
1007 -98 -1006 0
-1008 994 -987 0
-1008 -994 987 0
1008 994 987 0
1008 -994 -987 0
-1009 1008 -964 0
-1009 -1008 964 0
1009 1008 964 0
1009 -1008 -964 0
-1010 97 983 0
-1010 -97 1009 0
1010 97 -983 0
1010 -97 -1009 0
-1011 -975 951 0
-1011 975 -951 0
1011 -975 -951 0
1011 975 951 0
-1012 1011 -987 0
-1012 -1011 987 0
1012 1011 987 0
1012 -1011 -987 0
-1013 1012 -946 0
-1013 -1012 946 0
1013 1012 946 0
1013 -1012 -946 0
-1014 1013 -970 0
-1014 -1013 970 0
1014 1013 970 0
1014 -1013 -970 0
-1015 97 975 0
-1015 -97 1014 0
1015 97 -975 0
1015 -97 -1014 0
-1016 1015 -979 0
-1016 -1015 979 0
1016 1015 979 0
1016 -1015 -979 0
-1017 1016 -1010 0
-1017 -1016 1010 0
1017 1016 1010 0
1017 -1016 -1010 0
-1018 1017 -971 0
-1018 -1017 971 0
1018 1017 971 0
1018 -1017 -971 0
-1019 98 1010 0
-1019 -98 1018 0
1019 98 -1010 0
1019 -98 -1018 0
-1020 995 -975 0
-1020 -995 975 0
1020 995 975 0
1020 -995 -975 0
-1021 1020 -964 0
-1021 -1020 964 0
1021 1020 964 0
1021 -1020 -964 0
-1022 1021 -983 0
-1022 -1021 983 0
1022 1021 983 0
1022 -1021 -983 0
-1023 97 951 0
-1023 -97 1022 0
1023 97 -951 0
1023 -97 -1022 0
-1024 1023 -991 0
-1024 -1023 991 0
1024 1023 991 0
1024 -1023 -991 0
-1025 1024 -979 0
-1025 -1024 979 0
1025 1024 979 0
1025 -1024 -979 0
-1026 1025 -1010 0
-1026 -1025 1010 0
1026 1025 1010 0
1026 -1025 -1010 0
-1027 98 979 0
-1027 -98 1026 0
1027 98 -979 0
1027 -98 -1026 0
-1028 98 991 0
-1028 -98 1005 0
1028 98 -991 0
1028 -98 -1005 0
-1029 1003 -979 0
-1029 -1003 979 0
1029 1003 979 0
1029 -1003 -979 0
-1030 98 1023 0
-1030 -98 1029 0
1030 98 -1023 0
1030 -98 -1029 0
-1031 1016 -971 0
-1031 -1016 971 0
1031 1016 971 0
1031 -1016 -971 0
-1032 98 1002 0
-1032 -98 1031 0
1032 98 -1002 0
1032 -98 -1031 0
-1033 -1032 1030 0
-1033 1032 -1030 0
1033 -1032 -1030 0
1033 1032 1030 0
-1034 1033 -1028 0
-1034 -1033 1028 0
1034 1033 1028 0
1034 -1033 -1028 0
-1035 1034 -1027 0
-1035 -1034 1027 0
1035 1034 1027 0
1035 -1034 -1027 0
-1036 1035 -1019 0
-1036 -1035 1019 0
1036 1035 1019 0
1036 -1035 -1019 0
-1037 1036 -1007 0
-1037 -1036 1007 0
1037 1036 1007 0
1037 -1036 -1007 0
-1038 99 1007 0
-1038 -99 1037 0
1038 99 -1007 0
1038 -99 -1037 0
-1039 1015 -1002 0
-1039 -1015 1002 0
1039 1015 1002 0
1039 -1015 -1002 0
-1040 1039 -979 0
-1040 -1039 979 0
1040 1039 979 0
1040 -1039 -979 0
-1041 1040 -971 0
-1041 -1040 971 0
1041 1040 971 0
1041 -1040 -971 0
-1042 98 998 0
-1042 -98 1041 0
1042 98 -998 0
1042 -98 -1041 0
-1043 1024 -1010 0
-1043 -1024 1010 0
1043 1024 1010 0
1043 -1024 -1010 0
-1044 98 1015 0
-1044 -98 1043 0
1044 98 -1015 0
1044 -98 -1043 0
-1045 -1044 1042 0
-1045 1044 -1042 0
1045 -1044 -1042 0
1045 1044 1042 0
-1046 1045 -1032 0
-1046 -1045 1032 0
1046 1045 1032 0
1046 -1045 -1032 0
-1047 1046 -1028 0
-1047 -1046 1028 0
1047 1046 1028 0
1047 -1046 -1028 0
-1048 1047 -1027 0
-1048 -1047 1027 0
1048 1047 1027 0
1048 -1047 -1027 0
-1049 99 1042 0
-1049 -99 1048 0
1049 99 -1042 0
1049 -99 -1048 0
-1050 -1044 1030 0
-1050 1044 -1030 0
1050 -1044 -1030 0
1050 1044 1030 0
-1051 1050 -1007 0
-1051 -1050 1007 0
1051 1050 1007 0
1051 -1050 -1007 0
-1052 99 1027 0
-1052 -99 1051 0
1052 99 -1027 0
1052 -99 -1051 0
-1053 -1052 1049 0
-1053 1052 -1049 0
1053 -1052 -1049 0
1053 1052 1049 0
-1054 1053 -1038 0
-1054 -1053 1038 0
1054 1053 1038 0
1054 -1053 -1038 0
-1055 100 1038 0
-1055 -100 1054 0
1055 100 -1038 0
1055 -100 -1054 0
-1056 -1055 -83 0
-1056 1055 83 0
-1057 1048 -1019 0
-1057 -1048 1019 0
1057 1048 1019 0
1057 -1048 -1019 0
-1058 99 1019 0
-1058 -99 1057 0
1058 99 -1019 0
1058 -99 -1057 0
-1059 1042 -1032 0
-1059 -1042 1032 0
1059 1042 1032 0
1059 -1042 -1032 0
-1060 1059 -1028 0
-1060 -1059 1028 0
1060 1059 1028 0
1060 -1059 -1028 0
-1061 1060 -1007 0
-1061 -1060 1007 0
1061 1060 1007 0
1061 -1060 -1007 0
-1062 99 1032 0
-1062 -99 1061 0
1062 99 -1032 0
1062 -99 -1061 0
-1063 1062 -1052 0
-1063 -1062 1052 0
1063 1062 1052 0
1063 -1062 -1052 0
-1064 1063 -1058 0
-1064 -1063 1058 0
1064 1063 1058 0
1064 -1063 -1058 0
-1065 1064 -1038 0
-1065 -1064 1038 0
1065 1064 1038 0
1065 -1064 -1038 0
-1066 100 1058 0
-1066 -100 1065 0
1066 100 -1058 0
1066 -100 -1065 0
-1067 -1066 -82 0
-1067 1066 82 0
-1068 1044 -1028 0
-1068 -1044 1028 0
1068 1044 1028 0
1068 -1044 -1028 0
-1069 1068 -1027 0
-1069 -1068 1027 0
1069 1068 1027 0
1069 -1068 -1027 0
-1070 1069 -1019 0
-1070 -1069 1019 0
1070 1069 1019 0
1070 -1069 -1019 0
-1071 1070 -1007 0
-1071 -1070 1007 0
1071 1070 1007 0
1071 -1070 -1007 0
-1072 99 1044 0
-1072 -99 1071 0
1072 99 -1044 0
1072 -99 -1071 0
-1073 1042 -1030 0
-1073 -1042 1030 0
1073 1042 1030 0
1073 -1042 -1030 0
-1074 1073 -1019 0
-1074 -1073 1019 0
1074 1073 1019 0
1074 -1073 -1019 0
-1075 99 1028 0
-1075 -99 1074 0
1075 99 -1028 0
1075 -99 -1074 0
-1076 -1075 1072 0
-1076 1075 -1072 0
1076 -1075 -1072 0
1076 1075 1072 0
-1077 1076 -1052 0
-1077 -1076 1052 0
1077 1076 1052 0
1077 -1076 -1052 0
-1078 1077 -1058 0
-1078 -1077 1058 0
1078 1077 1058 0
1078 -1077 -1058 0
-1079 100 1052 0
-1079 -100 1078 0
1079 100 -1052 0
1079 -100 -1078 0
-1080 -1079 -81 0
-1080 1079 81 0
-1081 99 1030 0
-1081 -99 1036 0
1081 99 -1030 0
1081 -99 -1036 0
-1082 1081 -1062 0
-1082 -1081 1062 0
1082 1081 1062 0
1082 -1081 -1062 0
-1083 1082 -1075 0
-1083 -1082 1075 0
1083 1082 1075 0
1083 -1082 -1075 0
-1084 1083 -1052 0
-1084 -1083 1052 0
1084 1083 1052 0
1084 -1083 -1052 0
-1085 100 1075 0
-1085 -100 1084 0
1085 100 -1075 0
1085 -100 -1084 0
-1086 -1085 -80 0
-1086 1085 80 0
-1087 -1072 1049 0
-1087 1072 -1049 0
1087 -1072 -1049 0
1087 1072 1049 0
-1088 1087 -1062 0
-1088 -1087 1062 0
1088 1087 1062 0
1088 -1087 -1062 0
-1089 1088 -1075 0
-1089 -1088 1075 0
1089 1088 1075 0
1089 -1088 -1075 0
-1090 100 1062 0
-1090 -100 1089 0
1090 100 -1062 0
1090 -100 -1089 0
-1091 -1090 -79 0
-1091 1090 79 0
-1092 1081 -1072 0
-1092 -1081 1072 0
1092 1081 1072 0
1092 -1081 -1072 0
-1093 1092 -1075 0
-1093 -1092 1075 0
1093 1092 1075 0
1093 -1092 -1075 0
-1094 1093 -1052 0
-1094 -1093 1052 0
1094 1093 1052 0
1094 -1093 -1052 0
-1095 1094 -1038 0
-1095 -1094 1038 0
1095 1094 1038 0
1095 -1094 -1038 0
-1096 100 1072 0
-1096 -100 1095 0
1096 100 -1072 0
1096 -100 -1095 0
-1097 -1096 -78 0
-1097 1096 78 0
-1098 -1081 1049 0
-1098 1081 -1049 0
1098 -1081 -1049 0
1098 1081 1049 0
-1099 1098 -1062 0
-1099 -1098 1062 0
1099 1098 1062 0
1099 -1098 -1062 0
-1100 1099 -1075 0
-1100 -1099 1075 0
1100 1099 1075 0
1100 -1099 -1075 0
-1101 1100 -1058 0
-1101 -1100 1058 0
1101 1100 1058 0
1101 -1100 -1058 0
-1102 100 1081 0
-1102 -100 1101 0
1102 100 -1081 0
1102 -100 -1101 0
-1103 -1102 -77 0
-1103 1102 77 0
-1104 1087 -1075 0
-1104 -1087 1075 0
1104 1087 1075 0
1104 -1087 -1075 0
-1105 1104 -1038 0
-1105 -1104 1038 0
1105 1104 1038 0
1105 -1104 -1038 0
-1106 100 1049 0
-1106 -100 1105 0
1106 100 -1049 0
1106 -100 -1105 0
-1107 -1106 -76 0
-1107 1106 76 0
-1108 93 -92 0
-1108 -93 92 0
-1109 -100 0
-1109 -899 0
-1110 899 100 0
-1110 -899 -100 0
-1111 -99 0
-1111 1110 0
-1112 -899 0
-1112 1111 0
1113 1109 1112 0
-1114 -899 -99 0
-1114 899 99 0
-1115 1110 0
-1115 1114 0
-1116 -98 0
-1116 1115 0
-1117 -899 0
-1117 1116 0
1118 -1113 1117 0
-1119 -899 -98 0
-1119 899 98 0
-1120 1115 0
-1120 1119 0
-1121 -97 0
-1121 1120 0
-1122 -899 0
-1122 1121 0
1123 -1118 1122 0
-1124 -899 -97 0
-1124 899 97 0
-1125 1120 0
-1125 1124 0
-1126 -96 0
-1126 1125 0
-1127 -899 0
-1127 1126 0
1128 -1123 1127 0
-1129 -899 -96 0
-1129 899 96 0
-1130 1125 0
-1130 1129 0
-1131 -95 0
-1131 1130 0
-1132 -899 0
-1132 1131 0
1133 -1128 1132 0
-1134 -899 -95 0
-1134 899 95 0
-1135 1130 0
-1135 1134 0
-1136 -94 0
-1136 1135 0
-1137 -899 0
-1137 1136 0
1138 -1133 1137 0
-1139 -899 -94 0
-1139 899 94 0
-1140 1135 0
-1140 1139 0
-1141 -93 0
-1141 1140 0
1142 -1138 1141 0
-1143 -899 0
-1143 -1142 0
-1144 1108 0
-1144 1143 0
-1145 1107 0
-1145 1144 0
-1146 1103 0
-1146 1145 0
-1147 1097 0
-1147 1146 0
-1148 1091 0
-1148 1147 0
-1149 1086 0
-1149 1148 0
-1150 1080 0
-1150 1149 0
-1151 1067 0
-1151 1150 0
-1152 1056 0
-1152 1151 0
1153 908 1152 0
-1154 886 0
-1154 -1153 0
-1155 1 0
-1155 1154 0
-1156 -536 546 0
-1156 536 -35 0
1156 -536 -546 0
1156 536 35 0
-1157 -1156 -76 0
-1157 1156 76 0
-1158 1 0
-1158 1157 0
-1159 -536 -43 0
-1159 536 -36 0
1159 -536 43 0
1159 536 36 0
-1160 -1159 -77 0
-1160 1159 77 0
-1161 1158 0
-1161 1160 0
-1162 -536 -44 0
-1162 536 -37 0
1162 -536 44 0
1162 536 37 0
-1163 -1162 -78 0
-1163 1162 78 0
-1164 1161 0
-1164 1163 0
-1165 -536 -45 0
-1165 536 -38 0
1165 -536 45 0
1165 536 38 0
-1166 -1165 -79 0
-1166 1165 79 0
-1167 1164 0
-1167 1166 0
-1168 -536 -46 0
-1168 536 -39 0
1168 -536 46 0
1168 536 39 0
-1169 -1168 -80 0
-1169 1168 80 0
-1170 1167 0
-1170 1169 0
-1171 -536 -47 0
-1171 536 -40 0
1171 -536 47 0
1171 536 40 0
-1172 -1171 -81 0
-1172 1171 81 0
-1173 1170 0
-1173 1172 0
-1174 -536 -48 0
-1174 536 -41 0
1174 -536 48 0
1174 536 41 0
-1175 -1174 -82 0
-1175 1174 82 0
-1176 1173 0
-1176 1175 0
-1177 -536 -49 0
-1177 536 -42 0
1177 -536 49 0
1177 536 42 0
-1178 -1177 -83 0
-1178 1177 83 0
-1179 1176 0
-1179 1178 0
-1180 -536 -51 0
-1180 536 -35 0
1180 -536 51 0
1180 536 35 0
-1181 -1180 -84 0
-1181 1180 84 0
-1182 1179 0
-1182 1181 0
-1183 -536 -52 0
-1183 536 -36 0
1183 -536 52 0
1183 536 36 0
-1184 -1183 -85 0
-1184 1183 85 0
-1185 1182 0
-1185 1184 0
-1186 -536 -53 0
-1186 536 -37 0
1186 -536 53 0
1186 536 37 0
-1187 -1186 -86 0
-1187 1186 86 0
-1188 1185 0
-1188 1187 0
-1189 -536 -54 0
-1189 536 -38 0
1189 -536 54 0
1189 536 38 0
-1190 -1189 -87 0
-1190 1189 87 0
-1191 1188 0
-1191 1190 0
-1192 -536 -55 0
-1192 536 -39 0
1192 -536 55 0
1192 536 39 0
-1193 -1192 -88 0
-1193 1192 88 0
-1194 1191 0
-1194 1193 0
-1195 -536 -56 0
-1195 536 -40 0
1195 -536 56 0
1195 536 40 0
-1196 -1195 -89 0
-1196 1195 89 0
-1197 1194 0
-1197 1196 0
-1198 -536 -57 0
-1198 536 -41 0
1198 -536 57 0
1198 536 41 0
-1199 -1198 -90 0
-1199 1198 90 0
-1200 1197 0
-1200 1199 0
-1201 -536 -58 0
-1201 536 -42 0
1201 -536 58 0
1201 536 42 0
-1202 -1201 -91 0
-1202 1201 91 0
-1203 1200 0
-1203 1202 0
-1204 536 0
-1204 -562 0
1204 -536 562 0
-1205 -59 0
-1205 1204 0
1205 59 -1204 0
-1206 1205 -92 0
-1206 -1205 92 0
-1207 1203 0
-1207 1206 0
-1208 58 -49 0
-1208 -58 49 0
1208 58 49 0
1208 -58 -49 0
-1209 57 -48 0
-1209 -57 48 0
1209 57 48 0
1209 -57 -48 0
-1210 56 -47 0
-1210 -56 47 0
1210 56 47 0
1210 -56 -47 0
-1211 55 -46 0
-1211 -55 46 0
1211 55 46 0
1211 -55 -46 0
-1212 54 -45 0
-1212 -54 45 0
1212 54 45 0
1212 -54 -45 0
-1213 53 -44 0
-1213 -53 44 0
1213 53 44 0
1213 -53 -44 0
-1214 52 -43 0
-1214 -52 43 0
1214 52 43 0
1214 -52 -43 0
-1215 47 -46 0
-1215 -47 46 0
1215 47 46 0
1215 -47 -46 0
-1216 1215 48 0
-1216 -1215 -48 0
1216 1215 -48 0
1216 -1215 48 0
-1217 1216 50 0
-1217 -1216 -50 0
1217 1216 -50 0
1217 -1216 50 0
-1218 1217 51 0
-1218 -1217 -51 0
1218 1217 -51 0
1218 -1217 51 0
-1219 -586 0
-1219 1218 0
1219 586 -1218 0
-1220 1214 0
-1220 1219 0
1220 -1214 -1219 0
-1221 1213 0
-1221 1220 0
1221 -1213 -1220 0
-1222 1212 0
-1222 1221 0
1222 -1212 -1221 0
-1223 1211 0
-1223 1222 0
1223 -1211 -1222 0
-1224 1210 0
-1224 1223 0
1224 -1210 -1223 0
-1225 1209 0
-1225 1224 0
1225 -1209 -1224 0
-1226 1208 0
-1226 1225 0
1226 -1208 -1225 0
-1227 -37 0
-1227 530 0
1227 37 -530 0
-1228 -38 0
-1228 1227 0
1228 38 -1227 0
-1229 -39 0
-1229 1228 0
1229 39 -1228 0
-1230 -40 0
-1230 1229 0
1230 40 -1229 0
-1231 -41 0
-1231 1230 0
1231 41 -1230 0
-1232 -42 0
-1232 1231 0
1232 42 -1231 0
-1233 -586 0
-1233 1232 0
1233 586 -1232 0
-1234 -1226 0
-1234 1233 0
1234 1226 -1233 0
-1235 -60 0
-1235 1234 0
1235 60 -1234 0
-1236 1235 -93 0
-1236 -1235 93 0
-1237 1207 0
-1237 1236 0
-1238 -61 60 0
-1238 61 -60 0
1238 -61 -60 0
1238 61 60 0
-1239 1234 0
-1239 -1238 0
1239 -1234 1238 0
-1240 1239 -94 0
-1240 -1239 94 0
-1241 1237 0
-1241 1240 0
-1242 60 0
-1242 61 0
1242 -60 -61 0
-1243 1242 -62 0
-1243 -1242 62 0
1243 1242 62 0
1243 -1242 -62 0
-1244 1234 0
-1244 -1243 0
1244 -1234 1243 0
-1245 1244 -95 0
-1245 -1244 95 0
-1246 1241 0
-1246 1245 0
-1247 62 0
-1247 1242 0
1247 -62 -1242 0
-1248 1247 -63 0
-1248 -1247 63 0
1248 1247 63 0
1248 -1247 -63 0
-1249 1234 0
-1249 -1248 0
1249 -1234 1248 0
-1250 1249 -96 0
-1250 -1249 96 0
-1251 1246 0
-1251 1250 0
-1252 63 0
-1252 1247 0
1252 -63 -1247 0
-1253 1252 -64 0
-1253 -1252 64 0
1253 1252 64 0
1253 -1252 -64 0
-1254 1234 0
-1254 -1253 0
1254 -1234 1253 0
-1255 1254 -97 0
-1255 -1254 97 0
-1256 1251 0
-1256 1255 0
-1257 64 0
-1257 1252 0
1257 -64 -1252 0
-1258 1257 -65 0
-1258 -1257 65 0
1258 1257 65 0
1258 -1257 -65 0
-1259 1234 0
-1259 -1258 0
1259 -1234 1258 0
-1260 1259 -98 0
-1260 -1259 98 0
-1261 1256 0
-1261 1260 0
-1262 65 0
-1262 1257 0
1262 -65 -1257 0
-1263 1262 -66 0
-1263 -1262 66 0
1263 1262 66 0
1263 -1262 -66 0
-1264 1234 0
-1264 -1263 0
1264 -1234 1263 0
-1265 1264 -99 0
-1265 -1264 99 0
-1266 1261 0
-1266 1265 0
-1267 66 0
-1267 1262 0
1267 -66 -1262 0
-1268 1267 -67 0
-1268 -1267 67 0
1268 1267 67 0
1268 -1267 -67 0
-1269 1234 0
-1269 -1268 0
1269 -1234 1268 0
-1270 1269 -100 0
-1270 -1269 100 0
-1271 1266 0
-1271 1270 0
-1272 1 0
-1272 1 0
-1273 431 0
-1273 1272 0
-1274 1 0
-1274 1273 0
-1275 842 0
-1275 1274 0
-1276 1 0
-1276 1275 0
-1277 1155 0
-1277 1276 0
-1278 529 0
-1278 1277 0
-1279 1271 0
-1279 1278 0
-1280 1 0
-1280 1279 0
-1281 1 0
-1281 1280 0
-1282 -1 0
-1282 1281 0
1282 0
