p cnf 813 2348
1 0
-68 -2 0
-68 -3 0
68 2 3 0
-69 -4 0
-69 -5 0
69 4 5 0
-70 68 0
-70 69 0
70 -68 -69 0
-71 -6 0
-71 -7 0
71 6 7 0
-72 -8 0
-72 -9 0
72 8 9 0
-73 71 0
-73 72 0
73 -71 -72 0
-74 70 0
-74 73 0
74 -70 -73 0
-75 -17 13 0
-75 17 -13 0
75 -17 -13 0
75 17 13 0
-76 75 14 0
-76 -75 -14 0
76 75 -14 0
76 -75 14 0
-77 76 15 0
-77 -76 -15 0
77 76 -15 0
77 -76 15 0
-78 -74 77 0
-78 74 -2 0
78 -74 -77 0
78 74 2 0
-79 -74 -10 0
-79 74 -3 0
79 -74 10 0
79 74 3 0
-80 -74 -11 0
-80 74 -4 0
80 -74 11 0
80 74 4 0
-81 -74 -12 0
-81 74 -5 0
81 -74 12 0
81 74 5 0
-82 -74 -13 0
-82 74 -6 0
82 -74 13 0
82 74 6 0
-83 -74 -14 0
-83 74 -7 0
83 -74 14 0
83 74 7 0
-84 -74 -15 0
-84 74 -8 0
84 -74 15 0
84 74 8 0
-85 -74 -16 0
-85 74 -9 0
85 -74 16 0
85 74 9 0
-86 -74 -18 0
-86 74 -2 0
86 -74 18 0
86 74 2 0
-87 -74 -19 0
-87 74 -3 0
87 -74 19 0
87 74 3 0
-88 -74 -20 0
-88 74 -4 0
88 -74 20 0
88 74 4 0
-89 -74 -21 0
-89 74 -5 0
89 -74 21 0
89 74 5 0
-90 -74 -22 0
-90 74 -6 0
90 -74 22 0
90 74 6 0
-91 -74 -23 0
-91 74 -7 0
91 -74 23 0
91 74 7 0
-92 -74 -24 0
-92 74 -8 0
92 -74 24 0
92 74 8 0
-93 -74 -25 0
-93 74 -9 0
93 -74 25 0
93 74 9 0
-94 -18 0
-94 -19 0
94 18 19 0
-95 -20 0
-95 -21 0
95 20 21 0
-96 94 0
-96 95 0
96 -94 -95 0
-97 -22 0
-97 -23 0
97 22 23 0
-98 -24 0
-98 -25 0
98 24 25 0
-99 97 0
-99 98 0
99 -97 -98 0
-100 96 0
-100 99 0
100 -96 -99 0
-101 77 -18 0
-101 -77 18 0
101 77 18 0
101 -77 -18 0
-102 -19 -10 0
-102 19 10 0
102 -19 10 0
102 19 -10 0
-103 -101 0
-103 -102 0
103 101 102 0
-104 -20 -11 0
-104 20 11 0
104 -20 11 0
104 20 -11 0
-105 -21 -12 0
-105 21 12 0
105 -21 12 0
105 21 -12 0
-106 -104 0
-106 -105 0
106 104 105 0
-107 103 0
-107 106 0
107 -103 -106 0
-108 -22 -13 0
-108 22 13 0
108 -22 13 0
108 22 -13 0
-109 -23 -14 0
-109 23 14 0
109 -23 14 0
109 23 -14 0
-110 -108 0
-110 -109 0
110 108 109 0
-111 -24 -15 0
-111 24 15 0
111 -24 15 0
111 24 -15 0
-112 -25 -16 0
-112 25 16 0
112 -25 16 0
112 25 -16 0
-113 -111 0
-113 -112 0
113 111 112 0
-114 110 0
-114 113 0
114 -110 -113 0
-115 107 0
-115 114 0
115 -107 -114 0
-116 -100 0
-116 115 0
116 100 -115 0
-117 74 0
-117 -116 0
117 -74 116 0
-118 -26 0
-118 117 0
118 26 -117 0
119 -26 -116 0
120 -74 -119 0
121 10 -77 0
122 11 12 0
123 -121 -122 0
124 13 14 0
125 15 16 0
126 -124 -125 0
127 -123 -126 0
128 100 -127 0
-129 -120 0
-129 -128 0
-130 -27 0
-130 -28 0
-131 -29 0
-131 130 0
-132 -30 0
-132 131 0
-133 -31 0
-133 132 0
-134 -32 0
-134 133 0
-135 -33 0
-135 134 0
-136 -34 0
-136 135 0
-137 -20 0
-137 94 0
137 20 -94 0
-138 -21 0
-138 137 0
138 21 -137 0
-139 -22 0
-139 138 0
139 22 -138 0
-140 -23 0
-140 139 0
140 23 -139 0
-141 -24 0
-141 140 0
141 24 -140 0
-142 -25 0
-142 141 0
142 25 -141 0
-143 -10 0
-143 -11 0
-144 -12 0
-144 143 0
-145 -13 0
-145 144 0
-146 -14 0
-146 145 0
-147 -15 0
-147 146 0
-148 -16 0
-148 147 0
-149 -17 0
-149 148 0
-150 142 0
-150 149 0
-151 136 0
-151 150 0
-152 27 -25 0
-152 -27 -24 0
152 27 25 0
152 -27 24 0
-153 27 -23 0
-153 -27 -22 0
153 27 23 0
153 -27 22 0
-154 27 -21 0
-154 -27 -20 0
154 27 21 0
154 -27 20 0
-155 27 -22 0
-155 -27 -21 0
155 27 22 0
155 -27 21 0
-156 -155 154 0
-156 155 -154 0
156 -155 -154 0
156 155 154 0
-157 156 -153 0
-157 -156 153 0
157 156 153 0
157 -156 -153 0
-158 157 -152 0
-158 -157 152 0
158 157 152 0
158 -157 -152 0
-159 27 -19 0
-159 -27 -18 0
159 27 19 0
159 -27 18 0
-160 28 159 0
-160 -28 158 0
160 28 -159 0
160 -28 -158 0
-161 28 153 0
-161 -28 154 0
161 28 -153 0
161 -28 -154 0
-162 29 161 0
-162 -29 160 0
162 29 -161 0
162 -29 -160 0
-163 28 152 0
-163 -28 153 0
163 28 -152 0
163 -28 -153 0
-164 28 154 0
-164 -28 159 0
164 28 -154 0
164 -28 -159 0
-165 27 -20 0
-165 -27 -19 0
165 27 20 0
165 -27 19 0
-166 28 155 0
-166 -28 165 0
166 28 -155 0
166 -28 -165 0
-167 -166 164 0
-167 166 -164 0
167 -166 -164 0
167 166 164 0
-168 167 -161 0
-168 -167 161 0
168 167 161 0
168 -167 -161 0
-169 168 -163 0
-169 -168 163 0
169 168 163 0
169 -168 -163 0
-170 29 164 0
-170 -29 169 0
170 29 -164 0
170 -29 -169 0
-171 22 -21 0
-171 -22 21 0
171 22 21 0
171 -22 -21 0
-172 171 23 0
-172 -171 -23 0
172 171 -23 0
172 -171 23 0
-173 172 25 0
-173 -172 -25 0
173 172 -25 0
173 -172 25 0
-174 27 -18 0
-174 -27 173 0
174 27 18 0
174 -27 -173 0
-175 28 165 0
-175 -28 174 0
175 28 -165 0
175 -28 -174 0
-176 -175 160 0
-176 175 -160 0
176 -175 -160 0
176 175 160 0
-177 176 -164 0
-177 -176 164 0
177 176 164 0
177 -176 -164 0
-178 177 -161 0
-178 -177 161 0
178 177 161 0
178 -177 -161 0
-179 29 160 0
-179 -29 178 0
179 29 -160 0
179 -29 -178 0
-180 27 -24 0
-180 -27 -23 0
180 27 24 0
180 -27 23 0
-181 28 180 0
-181 -28 155 0
181 28 -180 0
181 -28 -155 0
-182 175 -164 0
-182 -175 164 0
182 175 164 0
182 -175 -164 0
-183 182 -166 0
-183 -182 166 0
183 182 166 0
183 -182 -166 0
-184 183 -181 0
-184 -183 181 0
184 183 181 0
184 -183 -181 0
-185 29 175 0
-185 -29 184 0
185 29 -175 0
185 -29 -184 0
-186 -185 179 0
-186 185 -179 0
186 -185 -179 0
186 185 179 0
-187 186 -170 0
-187 -186 170 0
187 186 170 0
187 -186 -170 0
-188 187 -162 0
-188 -187 162 0
188 187 162 0
188 -187 -162 0
-189 30 162 0
-189 -30 188 0
189 30 -162 0
189 -30 -188 0
-190 29 163 0
-190 -29 164 0
190 29 -163 0
190 -29 -164 0
-191 29 181 0
-191 -29 175 0
191 29 -181 0
191 -29 -175 0
-192 -191 170 0
-192 191 -170 0
192 -191 -170 0
192 191 170 0
-193 192 -190 0
-193 -192 190 0
193 192 190 0
193 -192 -190 0
-194 30 179 0
-194 -30 193 0
194 30 -179 0
194 -30 -193 0
-195 165 -154 0
-195 -165 154 0
195 165 154 0
195 -165 -154 0
-196 195 -155 0
-196 -195 155 0
196 195 155 0
196 -195 -155 0
-197 196 -180 0
-197 -196 180 0
197 196 180 0
197 -196 -180 0
-198 28 174 0
-198 -28 197 0
198 28 -174 0
198 -28 -197 0
-199 29 166 0
-199 -29 198 0
199 29 -166 0
199 -29 -198 0
-200 198 -160 0
-200 -198 160 0
200 198 160 0
200 -198 -160 0
-201 200 -175 0
-201 -200 175 0
201 200 175 0
201 -200 -175 0
-202 201 -166 0
-202 -201 166 0
202 201 166 0
202 -201 -166 0
-203 29 198 0
-203 -29 202 0
203 29 -198 0
203 -29 -202 0
-204 203 -179 0
-204 -203 179 0
204 203 179 0
204 -203 -179 0
-205 204 -185 0
-205 -204 185 0
205 204 185 0
205 -204 -185 0
-206 205 -199 0
-206 -205 199 0
206 205 199 0
206 -205 -199 0
-207 30 199 0
-207 -30 206 0
207 30 -199 0
207 -30 -206 0
-208 -207 194 0
-208 207 -194 0
208 -207 -194 0
208 207 194 0
-209 208 -189 0
-209 -208 189 0
209 208 189 0
209 -208 -189 0
-210 -199 170 0
-210 199 -170 0
210 -199 -170 0
210 199 170 0
-211 210 -162 0
-211 -210 162 0
211 210 162 0
211 -210 -162 0
-212 211 -190 0
-212 -211 190 0
212 211 190 0
212 -211 -190 0
-213 30 190 0
-213 -30 212 0
213 30 -190 0
213 -30 -212 0
-214 31 213 0
-214 -31 209 0
214 31 -213 0
214 -31 -209 0
-215 203 -162 0
-215 -203 162 0
215 203 162 0
215 -203 -162 0
-216 215 -191 0
-216 -215 191 0
216 215 191 0
216 -215 -191 0
-217 216 -190 0
-217 -216 190 0
217 216 190 0
217 -216 -190 0
-218 30 185 0
-218 -30 217 0
218 30 -185 0
218 -30 -217 0
-219 218 -207 0
-219 -218 207 0
219 218 207 0
219 -218 -207 0
-220 219 -189 0
-220 -219 189 0
220 219 189 0
220 -219 -189 0
-221 220 -213 0
-221 -220 213 0
221 220 213 0
221 -220 -213 0
-222 31 189 0
-222 -31 221 0
222 31 -189 0
222 -31 -221 0
-223 185 -170 0
-223 -185 170 0
223 185 170 0
223 -185 -170 0
-224 223 -199 0
-224 -223 199 0
224 223 199 0
224 -223 -199 0
-225 224 -191 0
-225 -224 191 0
225 224 191 0
225 -224 -191 0
-226 30 191 0
-226 -30 225 0
226 30 -191 0
226 -30 -225 0
-227 204 -199 0
-227 -204 199 0
227 204 199 0
227 -204 -199 0
-228 227 -162 0
-228 -227 162 0
228 227 162 0
228 -227 -162 0
-229 228 -190 0
-229 -228 190 0
229 228 190 0
229 -228 -190 0
-230 30 170 0
-230 -30 229 0
230 30 -170 0
230 -30 -229 0
-231 -230 194 0
-231 230 -194 0
231 -230 -194 0
231 230 194 0
-232 231 -207 0
-232 -231 207 0
232 231 207 0
232 -231 -207 0
-233 232 -226 0
-233 -232 226 0
233 232 226 0
233 -232 -226 0
-234 31 207 0
-234 -31 233 0
234 31 -207 0
234 -31 -233 0
-235 185 -162 0
-235 -185 162 0
235 185 162 0
235 -185 -162 0
-236 235 -191 0
-236 -235 191 0
236 235 191 0
236 -235 -191 0
-237 30 203 0
-237 -30 236 0
237 30 -203 0
237 -30 -236 0
-238 237 -194 0
-238 -237 194 0
238 237 194 0
238 -237 -194 0
-239 238 -207 0
-239 -238 207 0
239 238 207 0
239 -238 -207 0
-240 239 -213 0
-240 -239 213 0
240 239 213 0
240 -239 -213 0
-241 31 237 0
-241 -31 240 0
241 31 -237 0
241 -31 -240 0
-242 237 -218 0
-242 -237 218 0
242 237 218 0
242 -237 -218 0
-243 242 -230 0
-243 -242 230 0
243 242 230 0
243 -242 -230 0
-244 243 -189 0
-244 -243 189 0
244 243 189 0
244 -243 -189 0
-245 31 230 0
-245 -31 244 0
245 31 -230 0
245 -31 -244 0
-246 -245 241 0
-246 245 -241 0
246 -245 -241 0
246 245 241 0
-247 246 -234 0
-247 -246 234 0
247 246 234 0
247 -246 -234 0
-248 247 -222 0
-248 -247 222 0
248 247 222 0
248 -247 -222 0
-249 248 -214 0
-249 -248 214 0
249 248 214 0
249 -248 -214 0
-250 32 214 0
-250 -32 249 0
250 32 -214 0
250 -32 -249 0
-251 237 -230 0
-251 -237 230 0
251 237 230 0
251 -237 -230 0
-252 251 -207 0
-252 -251 207 0
252 251 207 0
252 -251 -207 0
-253 31 226 0
-253 -31 252 0
253 31 -226 0
253 -31 -252 0
-254 -218 194 0
-254 218 -194 0
254 -218 -194 0
254 218 194 0
-255 254 -230 0
-255 -254 230 0
255 254 230 0
255 -254 -230 0
-256 255 -189 0
-256 -255 189 0
256 255 189 0
256 -255 -189 0
-257 256 -213 0
-257 -256 213 0
257 256 213 0
257 -256 -213 0
-258 31 218 0
-258 -31 257 0
258 31 -218 0
258 -31 -257 0
-259 258 -222 0
-259 -258 222 0
259 258 222 0
259 -258 -222 0
-260 259 -253 0
-260 -259 253 0
260 259 253 0
260 -259 -253 0
-261 260 -214 0
-261 -260 214 0
261 260 214 0
261 -260 -214 0
-262 32 253 0
-262 -32 261 0
262 32 -253 0
262 -32 -261 0
-263 238 -218 0
-263 -238 218 0
263 238 218 0
263 -238 -218 0
-264 263 -207 0
-264 -263 207 0
264 263 207 0
264 -263 -207 0
-265 264 -226 0
-265 -264 226 0
265 264 226 0
265 -264 -226 0
-266 31 194 0
-266 -31 265 0
266 31 -194 0
266 -31 -265 0
-267 266 -234 0
-267 -266 234 0
267 266 234 0
267 -266 -234 0
-268 267 -222 0
-268 -267 222 0
268 267 222 0
268 -267 -222 0
-269 268 -253 0
-269 -268 253 0
269 268 253 0
269 -268 -253 0
-270 32 222 0
-270 -32 269 0
270 32 -222 0
270 -32 -269 0
-271 32 234 0
-271 -32 248 0
271 32 -234 0
271 -32 -248 0
-272 246 -222 0
-272 -246 222 0
272 246 222 0
272 -246 -222 0
-273 32 266 0
-273 -32 272 0
273 32 -266 0
273 -32 -272 0
-274 259 -214 0
-274 -259 214 0
274 259 214 0
274 -259 -214 0
-275 32 245 0
-275 -32 274 0
275 32 -245 0
275 -32 -274 0
-276 -275 273 0
-276 275 -273 0
276 -275 -273 0
276 275 273 0
-277 276 -271 0
-277 -276 271 0
277 276 271 0
277 -276 -271 0
-278 277 -270 0
-278 -277 270 0
278 277 270 0
278 -277 -270 0
-279 278 -262 0
-279 -278 262 0
279 278 262 0
279 -278 -262 0
-280 279 -250 0
-280 -279 250 0
280 279 250 0
280 -279 -250 0
-281 33 250 0
-281 -33 280 0
281 33 -250 0
281 -33 -280 0
-282 258 -245 0
-282 -258 245 0
282 258 245 0
282 -258 -245 0
-283 282 -222 0
-283 -282 222 0
283 282 222 0
283 -282 -222 0
-284 283 -214 0
-284 -283 214 0
284 283 214 0
284 -283 -214 0
-285 32 241 0
-285 -32 284 0
285 32 -241 0
285 -32 -284 0
-286 267 -253 0
-286 -267 253 0
286 267 253 0
286 -267 -253 0
-287 32 258 0
-287 -32 286 0
287 32 -258 0
287 -32 -286 0
-288 -287 285 0
-288 287 -285 0
288 -287 -285 0
288 287 285 0
-289 288 -275 0
-289 -288 275 0
289 288 275 0
289 -288 -275 0
-290 289 -271 0
-290 -289 271 0
290 289 271 0
290 -289 -271 0
-291 290 -270 0
-291 -290 270 0
291 290 270 0
291 -290 -270 0
-292 33 285 0
-292 -33 291 0
292 33 -285 0
292 -33 -291 0
-293 -287 273 0
-293 287 -273 0
293 -287 -273 0
293 287 273 0
-294 293 -250 0
-294 -293 250 0
294 293 250 0
294 -293 -250 0
-295 33 270 0
-295 -33 294 0
295 33 -270 0
295 -33 -294 0
-296 -295 292 0
-296 295 -292 0
296 -295 -292 0
296 295 292 0
-297 296 -281 0
-297 -296 281 0
297 296 281 0
297 -296 -281 0
-298 34 281 0
-298 -34 297 0
298 34 -281 0
298 -34 -297 0
-299 -298 -17 0
-299 298 17 0
-300 291 -262 0
-300 -291 262 0
300 291 262 0
300 -291 -262 0
-301 33 262 0
-301 -33 300 0
301 33 -262 0
301 -33 -300 0
-302 285 -275 0
-302 -285 275 0
302 285 275 0
302 -285 -275 0
-303 302 -271 0
-303 -302 271 0
303 302 271 0
303 -302 -271 0
-304 303 -250 0
-304 -303 250 0
304 303 250 0
304 -303 -250 0
-305 33 275 0
-305 -33 304 0
305 33 -275 0
305 -33 -304 0
-306 305 -295 0
-306 -305 295 0
306 305 295 0
306 -305 -295 0
-307 306 -301 0
-307 -306 301 0
307 306 301 0
307 -306 -301 0
-308 307 -281 0
-308 -307 281 0
308 307 281 0
308 -307 -281 0
-309 34 301 0
-309 -34 308 0
309 34 -301 0
309 -34 -308 0
-310 -309 -16 0
-310 309 16 0
-311 287 -271 0
-311 -287 271 0
311 287 271 0
311 -287 -271 0
-312 311 -270 0
-312 -311 270 0
312 311 270 0
312 -311 -270 0
-313 312 -262 0
-313 -312 262 0
313 312 262 0
313 -312 -262 0
-314 313 -250 0
-314 -313 250 0
314 313 250 0
314 -313 -250 0
-315 33 287 0
-315 -33 314 0
315 33 -287 0
315 -33 -314 0
-316 285 -273 0
-316 -285 273 0
316 285 273 0
316 -285 -273 0
-317 316 -262 0
-317 -316 262 0
317 316 262 0
317 -316 -262 0
-318 33 271 0
-318 -33 317 0
318 33 -271 0
318 -33 -317 0
-319 -318 315 0
-319 318 -315 0
319 -318 -315 0
319 318 315 0
-320 319 -295 0
-320 -319 295 0
320 319 295 0
320 -319 -295 0
-321 320 -301 0
-321 -320 301 0
321 320 301 0
321 -320 -301 0
-322 34 295 0
-322 -34 321 0
322 34 -295 0
322 -34 -321 0
-323 -322 -15 0
-323 322 15 0
-324 33 273 0
-324 -33 279 0
324 33 -273 0
324 -33 -279 0
-325 324 -305 0
-325 -324 305 0
325 324 305 0
325 -324 -305 0
-326 325 -318 0
-326 -325 318 0
326 325 318 0
326 -325 -318 0
-327 326 -295 0
-327 -326 295 0
327 326 295 0
327 -326 -295 0
-328 34 318 0
-328 -34 327 0
328 34 -318 0
328 -34 -327 0
-329 -328 -14 0
-329 328 14 0
-330 -315 292 0
-330 315 -292 0
330 -315 -292 0
330 315 292 0
-331 330 -305 0
-331 -330 305 0
331 330 305 0
331 -330 -305 0
-332 331 -318 0
-332 -331 318 0
332 331 318 0
332 -331 -318 0
-333 34 305 0
-333 -34 332 0
333 34 -305 0
333 -34 -332 0
-334 -333 -13 0
-334 333 13 0
-335 324 -315 0
-335 -324 315 0
335 324 315 0
335 -324 -315 0
-336 335 -318 0
-336 -335 318 0
336 335 318 0
336 -335 -318 0
-337 336 -295 0
-337 -336 295 0
337 336 295 0
337 -336 -295 0
-338 337 -281 0
-338 -337 281 0
338 337 281 0
338 -337 -281 0
-339 34 315 0
-339 -34 338 0
339 34 -315 0
339 -34 -338 0
-340 -339 -12 0
-340 339 12 0
-341 -324 292 0
-341 324 -292 0
341 -324 -292 0
341 324 292 0
-342 341 -305 0
-342 -341 305 0
342 341 305 0
342 -341 -305 0
-343 342 -318 0
-343 -342 318 0
343 342 318 0
343 -342 -318 0
-344 343 -301 0
-344 -343 301 0
344 343 301 0
344 -343 -301 0
-345 34 324 0
-345 -34 344 0
345 34 -324 0
345 -34 -344 0
-346 -345 -11 0
-346 345 11 0
-347 330 -318 0
-347 -330 318 0
347 330 318 0
347 -330 -318 0
-348 347 -281 0
-348 -347 281 0
348 347 281 0
348 -347 -281 0
-349 34 292 0
-349 -34 348 0
349 34 -292 0
349 -34 -348 0
-350 -349 -10 0
-350 349 10 0
-351 27 -26 0
-351 -27 26 0
-352 -34 0
-352 -142 0
-353 142 34 0
-353 -142 -34 0
-354 -33 0
-354 353 0
-355 -142 0
-355 354 0
356 352 355 0
-357 -142 -33 0
-357 142 33 0
-358 353 0
-358 357 0
-359 -32 0
-359 358 0
-360 -142 0
-360 359 0
361 -356 360 0
-362 -142 -32 0
-362 142 32 0
-363 358 0
-363 362 0
-364 -31 0
-364 363 0
-365 -142 0
-365 364 0
366 -361 365 0
-367 -142 -31 0
-367 142 31 0
-368 363 0
-368 367 0
-369 -30 0
-369 368 0
-370 -142 0
-370 369 0
371 -366 370 0
-372 -142 -30 0
-372 142 30 0
-373 368 0
-373 372 0
-374 -29 0
-374 373 0
-375 -142 0
-375 374 0
376 -371 375 0
-377 -142 -29 0
-377 142 29 0
-378 373 0
-378 377 0
-379 -28 0
-379 378 0
-380 -142 0
-380 379 0
381 -376 380 0
-382 -142 -28 0
-382 142 28 0
-383 378 0
-383 382 0
-384 -27 0
-384 383 0
385 -381 384 0
-386 -142 0
-386 -385 0
-387 351 0
-387 386 0
-388 350 0
-388 387 0
-389 346 0
-389 388 0
-390 340 0
-390 389 0
-391 334 0
-391 390 0
-392 329 0
-392 391 0
-393 323 0
-393 392 0
-394 310 0
-394 393 0
-395 299 0
-395 394 0
396 151 395 0
-397 129 0
-397 -396 0
-398 1 0
-398 397 0
-399 -78 -43 0
-399 78 43 0
-400 1 0
-400 399 0
-401 -79 -44 0
-401 79 44 0
-402 400 0
-402 401 0
-403 -80 -45 0
-403 80 45 0
-404 402 0
-404 403 0
-405 -81 -46 0
-405 81 46 0
-406 404 0
-406 405 0
-407 -82 -47 0
-407 82 47 0
-408 406 0
-408 407 0
-409 -83 -48 0
-409 83 48 0
-410 408 0
-410 409 0
-411 -84 -49 0
-411 84 49 0
-412 410 0
-412 411 0
-413 -85 -50 0
-413 85 50 0
-414 412 0
-414 413 0
-415 -86 -51 0
-415 86 51 0
-416 414 0
-416 415 0
-417 -87 -52 0
-417 87 52 0
-418 416 0
-418 417 0
-419 -88 -53 0
-419 88 53 0
-420 418 0
-420 419 0
-421 -89 -54 0
-421 89 54 0
-422 420 0
-422 421 0
-423 -90 -55 0
-423 90 55 0
-424 422 0
-424 423 0
-425 -91 -56 0
-425 91 56 0
-426 424 0
-426 425 0
-427 -92 -57 0
-427 92 57 0
-428 426 0
-428 427 0
-429 -93 -58 0
-429 93 58 0
-430 428 0
-430 429 0
-431 118 -59 0
-431 -118 59 0
-432 430 0
-432 431 0
-433 25 -16 0
-433 -25 16 0
433 25 16 0
433 -25 -16 0
-434 24 -15 0
-434 -24 15 0
434 24 15 0
434 -24 -15 0
-435 23 -14 0
-435 -23 14 0
435 23 14 0
435 -23 -14 0
-436 22 -13 0
-436 -22 13 0
436 22 13 0
436 -22 -13 0
-437 21 -12 0
-437 -21 12 0
437 21 12 0
437 -21 -12 0
-438 20 -11 0
-438 -20 11 0
438 20 11 0
438 -20 -11 0
-439 19 -10 0
-439 -19 10 0
439 19 10 0
439 -19 -10 0
-440 14 -13 0
-440 -14 13 0
440 14 13 0
440 -14 -13 0
-441 440 15 0
-441 -440 -15 0
441 440 -15 0
441 -440 15 0
-442 441 17 0
-442 -441 -17 0
442 441 -17 0
442 -441 17 0
-443 442 18 0
-443 -442 -18 0
443 442 -18 0
443 -442 18 0
-444 -142 0
-444 443 0
444 142 -443 0
-445 439 0
-445 444 0
445 -439 -444 0
-446 438 0
-446 445 0
446 -438 -445 0
-447 437 0
-447 446 0
447 -437 -446 0
-448 436 0
-448 447 0
448 -436 -447 0
-449 435 0
-449 448 0
449 -435 -448 0
-450 434 0
-450 449 0
450 -434 -449 0
-451 433 0
-451 450 0
451 -433 -450 0
-452 -4 0
-452 68 0
452 4 -68 0
-453 -5 0
-453 452 0
453 5 -452 0
-454 -6 0
-454 453 0
454 6 -453 0
-455 -7 0
-455 454 0
455 7 -454 0
-456 -8 0
-456 455 0
456 8 -455 0
-457 -9 0
-457 456 0
457 9 -456 0
-458 -142 0
-458 457 0
458 142 -457 0
-459 -451 0
-459 458 0
459 451 -458 0
-460 -27 0
-460 459 0
460 27 -459 0
-461 460 -60 0
-461 -460 60 0
-462 432 0
-462 461 0
-463 -28 27 0
-463 28 -27 0
463 -28 -27 0
463 28 27 0
-464 459 0
-464 -463 0
464 -459 463 0
-465 464 -61 0
-465 -464 61 0
-466 462 0
-466 465 0
-467 27 0
-467 28 0
467 -27 -28 0
-468 467 -29 0
-468 -467 29 0
468 467 29 0
468 -467 -29 0
-469 459 0
-469 -468 0
469 -459 468 0
-470 469 -62 0
-470 -469 62 0
-471 466 0
-471 470 0
-472 29 0
-472 467 0
472 -29 -467 0
-473 472 -30 0
-473 -472 30 0
473 472 30 0
473 -472 -30 0
-474 459 0
-474 -473 0
474 -459 473 0
-475 474 -63 0
-475 -474 63 0
-476 471 0
-476 475 0
-477 30 0
-477 472 0
477 -30 -472 0
-478 477 -31 0
-478 -477 31 0
478 477 31 0
478 -477 -31 0
-479 459 0
-479 -478 0
479 -459 478 0
-480 479 -64 0
-480 -479 64 0
-481 476 0
-481 480 0
-482 31 0
-482 477 0
482 -31 -477 0
-483 482 -32 0
-483 -482 32 0
483 482 32 0
483 -482 -32 0
-484 459 0
-484 -483 0
484 -459 483 0
-485 484 -65 0
-485 -484 65 0
-486 481 0
-486 485 0
-487 32 0
-487 482 0
487 -32 -482 0
-488 487 -33 0
-488 -487 33 0
488 487 33 0
488 -487 -33 0
-489 459 0
-489 -488 0
489 -459 488 0
-490 489 -66 0
-490 -489 66 0
-491 486 0
-491 490 0
-492 33 0
-492 487 0
492 -33 -487 0
-493 492 -34 0
-493 -492 34 0
493 492 34 0
493 -492 -34 0
-494 459 0
-494 -493 0
494 -459 493 0
-495 494 -67 0
-495 -494 67 0
-496 491 0
-496 495 0
-497 -35 0
-497 -36 0
-498 -37 0
-498 -38 0
-499 497 0
-499 498 0
-500 -39 0
-500 -40 0
-501 -41 0
-501 -42 0
-502 500 0
-502 501 0
-503 499 0
-503 502 0
-504 -51 0
-504 -52 0
504 51 52 0
505 53 54 0
506 -504 -505 0
507 55 56 0
508 57 58 0
509 -507 -508 0
510 -506 -509 0
-511 -50 46 0
-511 50 -46 0
511 -50 -46 0
511 50 46 0
-512 511 47 0
-512 -511 -47 0
512 511 -47 0
512 -511 47 0
-513 512 48 0
-513 -512 -48 0
513 512 -48 0
513 -512 48 0
514 513 51 0
514 -513 -51 0
515 -52 43 0
515 52 -43 0
-516 -514 0
-516 -515 0
517 -53 44 0
517 53 -44 0
518 -54 45 0
518 54 -45 0
-519 -517 0
-519 -518 0
-520 516 0
-520 519 0
521 -55 46 0
521 55 -46 0
522 -56 47 0
522 56 -47 0
-523 -521 0
-523 -522 0
524 -57 48 0
524 57 -48 0
525 -58 49 0
525 58 -49 0
-526 -524 0
-526 -525 0
-527 523 0
-527 526 0
-528 520 0
-528 527 0
-529 -510 0
-529 528 0
-530 59 0
-530 529 0
-531 503 0
-531 530 0
-532 -43 0
-532 513 0
-533 -44 0
-533 -45 0
-534 532 0
-534 533 0
-535 -46 0
-535 -47 0
-536 -48 0
-536 -49 0
-537 535 0
-537 536 0
-538 534 0
-538 537 0
-539 -510 0
-539 538 0
540 531 539 0
541 60 61 0
542 62 -541 0
543 63 -542 0
544 64 -543 0
545 65 -544 0
546 66 -545 0
547 67 -546 0
-548 -53 0
-548 504 0
548 53 -504 0
-549 -54 0
-549 548 0
549 54 -548 0
-550 -55 0
-550 549 0
550 55 -549 0
-551 -56 0
-551 550 0
551 56 -550 0
-552 -57 0
-552 551 0
552 57 -551 0
-553 -58 0
-553 552 0
553 58 -552 0
554 43 44 0
555 45 -554 0
556 46 -555 0
557 47 -556 0
558 48 -557 0
559 49 -558 0
560 50 -559 0
561 -553 -560 0
562 -547 -561 0
-563 60 -58 0
-563 -60 -57 0
563 60 58 0
563 -60 57 0
-564 60 -56 0
-564 -60 -55 0
564 60 56 0
564 -60 55 0
-565 60 -54 0
-565 -60 -53 0
565 60 54 0
565 -60 53 0
-566 60 -55 0
-566 -60 -54 0
566 60 55 0
566 -60 54 0
-567 -566 565 0
-567 566 -565 0
567 -566 -565 0
567 566 565 0
-568 567 -564 0
-568 -567 564 0
568 567 564 0
568 -567 -564 0
-569 568 -563 0
-569 -568 563 0
569 568 563 0
569 -568 -563 0
-570 60 -52 0
-570 -60 -51 0
570 60 52 0
570 -60 51 0
-571 61 570 0
-571 -61 569 0
571 61 -570 0
571 -61 -569 0
-572 61 564 0
-572 -61 565 0
572 61 -564 0
572 -61 -565 0
-573 62 572 0
-573 -62 571 0
573 62 -572 0
573 -62 -571 0
-574 61 563 0
-574 -61 564 0
574 61 -563 0
574 -61 -564 0
-575 61 565 0
-575 -61 570 0
575 61 -565 0
575 -61 -570 0
-576 60 -53 0
-576 -60 -52 0
576 60 53 0
576 -60 52 0
-577 61 566 0
-577 -61 576 0
577 61 -566 0
577 -61 -576 0
-578 -577 575 0
-578 577 -575 0
578 -577 -575 0
578 577 575 0
-579 578 -572 0
-579 -578 572 0
579 578 572 0
579 -578 -572 0
-580 579 -574 0
-580 -579 574 0
580 579 574 0
580 -579 -574 0
-581 62 575 0
-581 -62 580 0
581 62 -575 0
581 -62 -580 0
-582 55 -54 0
-582 -55 54 0
582 55 54 0
582 -55 -54 0
-583 582 56 0
-583 -582 -56 0
583 582 -56 0
583 -582 56 0
-584 583 58 0
-584 -583 -58 0
584 583 -58 0
584 -583 58 0
-585 60 -51 0
-585 -60 584 0
585 60 51 0
585 -60 -584 0
-586 61 576 0
-586 -61 585 0
586 61 -576 0
586 -61 -585 0
-587 -586 571 0
-587 586 -571 0
587 -586 -571 0
587 586 571 0
-588 587 -575 0
-588 -587 575 0
588 587 575 0
588 -587 -575 0
-589 588 -572 0
-589 -588 572 0
589 588 572 0
589 -588 -572 0
-590 62 571 0
-590 -62 589 0
590 62 -571 0
590 -62 -589 0
-591 60 -57 0
-591 -60 -56 0
591 60 57 0
591 -60 56 0
-592 61 591 0
-592 -61 566 0
592 61 -591 0
592 -61 -566 0
-593 586 -575 0
-593 -586 575 0
593 586 575 0
593 -586 -575 0
-594 593 -577 0
-594 -593 577 0
594 593 577 0
594 -593 -577 0
-595 594 -592 0
-595 -594 592 0
595 594 592 0
595 -594 -592 0
-596 62 586 0
-596 -62 595 0
596 62 -586 0
596 -62 -595 0
-597 -596 590 0
-597 596 -590 0
597 -596 -590 0
597 596 590 0
-598 597 -581 0
-598 -597 581 0
598 597 581 0
598 -597 -581 0
-599 598 -573 0
-599 -598 573 0
599 598 573 0
599 -598 -573 0
-600 63 573 0
-600 -63 599 0
600 63 -573 0
600 -63 -599 0
-601 62 574 0
-601 -62 575 0
601 62 -574 0
601 -62 -575 0
-602 62 592 0
-602 -62 586 0
602 62 -592 0
602 -62 -586 0
-603 -602 581 0
-603 602 -581 0
603 -602 -581 0
603 602 581 0
-604 603 -601 0
-604 -603 601 0
604 603 601 0
604 -603 -601 0
-605 63 590 0
-605 -63 604 0
605 63 -590 0
605 -63 -604 0
-606 576 -565 0
-606 -576 565 0
606 576 565 0
606 -576 -565 0
-607 606 -566 0
-607 -606 566 0
607 606 566 0
607 -606 -566 0
-608 607 -591 0
-608 -607 591 0
608 607 591 0
608 -607 -591 0
-609 61 585 0
-609 -61 608 0
609 61 -585 0
609 -61 -608 0
-610 62 577 0
-610 -62 609 0
610 62 -577 0
610 -62 -609 0
-611 609 -571 0
-611 -609 571 0
611 609 571 0
611 -609 -571 0
-612 611 -586 0
-612 -611 586 0
612 611 586 0
612 -611 -586 0
-613 612 -577 0
-613 -612 577 0
613 612 577 0
613 -612 -577 0
-614 62 609 0
-614 -62 613 0
614 62 -609 0
614 -62 -613 0
-615 614 -590 0
-615 -614 590 0
615 614 590 0
615 -614 -590 0
-616 615 -596 0
-616 -615 596 0
616 615 596 0
616 -615 -596 0
-617 616 -610 0
-617 -616 610 0
617 616 610 0
617 -616 -610 0
-618 63 610 0
-618 -63 617 0
618 63 -610 0
618 -63 -617 0
-619 -618 605 0
-619 618 -605 0
619 -618 -605 0
619 618 605 0
-620 619 -600 0
-620 -619 600 0
620 619 600 0
620 -619 -600 0
-621 -610 581 0
-621 610 -581 0
621 -610 -581 0
621 610 581 0
-622 621 -573 0
-622 -621 573 0
622 621 573 0
622 -621 -573 0
-623 622 -601 0
-623 -622 601 0
623 622 601 0
623 -622 -601 0
-624 63 601 0
-624 -63 623 0
624 63 -601 0
624 -63 -623 0
-625 64 624 0
-625 -64 620 0
625 64 -624 0
625 -64 -620 0
-626 614 -573 0
-626 -614 573 0
626 614 573 0
626 -614 -573 0
-627 626 -602 0
-627 -626 602 0
627 626 602 0
627 -626 -602 0
-628 627 -601 0
-628 -627 601 0
628 627 601 0
628 -627 -601 0
-629 63 596 0
-629 -63 628 0
629 63 -596 0
629 -63 -628 0
-630 629 -618 0
-630 -629 618 0
630 629 618 0
630 -629 -618 0
-631 630 -600 0
-631 -630 600 0
631 630 600 0
631 -630 -600 0
-632 631 -624 0
-632 -631 624 0
632 631 624 0
632 -631 -624 0
-633 64 600 0
-633 -64 632 0
633 64 -600 0
633 -64 -632 0
-634 596 -581 0
-634 -596 581 0
634 596 581 0
634 -596 -581 0
-635 634 -610 0
-635 -634 610 0
635 634 610 0
635 -634 -610 0
-636 635 -602 0
-636 -635 602 0
636 635 602 0
636 -635 -602 0
-637 63 602 0
-637 -63 636 0
637 63 -602 0
637 -63 -636 0
-638 615 -610 0
-638 -615 610 0
638 615 610 0
638 -615 -610 0
-639 638 -573 0
-639 -638 573 0
639 638 573 0
639 -638 -573 0
-640 639 -601 0
-640 -639 601 0
640 639 601 0
640 -639 -601 0
-641 63 581 0
-641 -63 640 0
641 63 -581 0
641 -63 -640 0
-642 -641 605 0
-642 641 -605 0
642 -641 -605 0
642 641 605 0
-643 642 -618 0
-643 -642 618 0
643 642 618 0
643 -642 -618 0
-644 643 -637 0
-644 -643 637 0
644 643 637 0
644 -643 -637 0
-645 64 618 0
-645 -64 644 0
645 64 -618 0
645 -64 -644 0
-646 596 -573 0
-646 -596 573 0
646 596 573 0
646 -596 -573 0
-647 646 -602 0
-647 -646 602 0
647 646 602 0
647 -646 -602 0
-648 63 614 0
-648 -63 647 0
648 63 -614 0
648 -63 -647 0
-649 648 -605 0
-649 -648 605 0
649 648 605 0
649 -648 -605 0
-650 649 -618 0
-650 -649 618 0
650 649 618 0
650 -649 -618 0
-651 650 -624 0
-651 -650 624 0
651 650 624 0
651 -650 -624 0
-652 64 648 0
-652 -64 651 0
652 64 -648 0
652 -64 -651 0
-653 648 -629 0
-653 -648 629 0
653 648 629 0
653 -648 -629 0
-654 653 -641 0
-654 -653 641 0
654 653 641 0
654 -653 -641 0
-655 654 -600 0
-655 -654 600 0
655 654 600 0
655 -654 -600 0
-656 64 641 0
-656 -64 655 0
656 64 -641 0
656 -64 -655 0
-657 -656 652 0
-657 656 -652 0
657 -656 -652 0
657 656 652 0
-658 657 -645 0
-658 -657 645 0
658 657 645 0
658 -657 -645 0
-659 658 -633 0
-659 -658 633 0
659 658 633 0
659 -658 -633 0
-660 659 -625 0
-660 -659 625 0
660 659 625 0
660 -659 -625 0
-661 65 625 0
-661 -65 660 0
661 65 -625 0
661 -65 -660 0
-662 648 -641 0
-662 -648 641 0
662 648 641 0
662 -648 -641 0
-663 662 -618 0
-663 -662 618 0
663 662 618 0
663 -662 -618 0
-664 64 637 0
-664 -64 663 0
664 64 -637 0
664 -64 -663 0
-665 -629 605 0
-665 629 -605 0
665 -629 -605 0
665 629 605 0
-666 665 -641 0
-666 -665 641 0
666 665 641 0
666 -665 -641 0
-667 666 -600 0
-667 -666 600 0
667 666 600 0
667 -666 -600 0
-668 667 -624 0
-668 -667 624 0
668 667 624 0
668 -667 -624 0
-669 64 629 0
-669 -64 668 0
669 64 -629 0
669 -64 -668 0
-670 669 -633 0
-670 -669 633 0
670 669 633 0
670 -669 -633 0
-671 670 -664 0
-671 -670 664 0
671 670 664 0
671 -670 -664 0
-672 671 -625 0
-672 -671 625 0
672 671 625 0
672 -671 -625 0
-673 65 664 0
-673 -65 672 0
673 65 -664 0
673 -65 -672 0
-674 649 -629 0
-674 -649 629 0
674 649 629 0
674 -649 -629 0
-675 674 -618 0
-675 -674 618 0
675 674 618 0
675 -674 -618 0
-676 675 -637 0
-676 -675 637 0
676 675 637 0
676 -675 -637 0
-677 64 605 0
-677 -64 676 0
677 64 -605 0
677 -64 -676 0
-678 677 -645 0
-678 -677 645 0
678 677 645 0
678 -677 -645 0
-679 678 -633 0
-679 -678 633 0
679 678 633 0
679 -678 -633 0
-680 679 -664 0
-680 -679 664 0
680 679 664 0
680 -679 -664 0
-681 65 633 0
-681 -65 680 0
681 65 -633 0
681 -65 -680 0
-682 65 645 0
-682 -65 659 0
682 65 -645 0
682 -65 -659 0
-683 657 -633 0
-683 -657 633 0
683 657 633 0
683 -657 -633 0
-684 65 677 0
-684 -65 683 0
684 65 -677 0
684 -65 -683 0
-685 670 -625 0
-685 -670 625 0
685 670 625 0
685 -670 -625 0
-686 65 656 0
-686 -65 685 0
686 65 -656 0
686 -65 -685 0
-687 -686 684 0
-687 686 -684 0
687 -686 -684 0
687 686 684 0
-688 687 -682 0
-688 -687 682 0
688 687 682 0
688 -687 -682 0
-689 688 -681 0
-689 -688 681 0
689 688 681 0
689 -688 -681 0
-690 689 -673 0
-690 -689 673 0
690 689 673 0
690 -689 -673 0
-691 690 -661 0
-691 -690 661 0
691 690 661 0
691 -690 -661 0
-692 66 661 0
-692 -66 691 0
692 66 -661 0
692 -66 -691 0
-693 669 -656 0
-693 -669 656 0
693 669 656 0
693 -669 -656 0
-694 693 -633 0
-694 -693 633 0
694 693 633 0
694 -693 -633 0
-695 694 -625 0
-695 -694 625 0
695 694 625 0
695 -694 -625 0
-696 65 652 0
-696 -65 695 0
696 65 -652 0
696 -65 -695 0
-697 678 -664 0
-697 -678 664 0
697 678 664 0
697 -678 -664 0
-698 65 669 0
-698 -65 697 0
698 65 -669 0
698 -65 -697 0
-699 -698 696 0
-699 698 -696 0
699 -698 -696 0
699 698 696 0
-700 699 -686 0
-700 -699 686 0
700 699 686 0
700 -699 -686 0
-701 700 -682 0
-701 -700 682 0
701 700 682 0
701 -700 -682 0
-702 701 -681 0
-702 -701 681 0
702 701 681 0
702 -701 -681 0
-703 66 696 0
-703 -66 702 0
703 66 -696 0
703 -66 -702 0
-704 -698 684 0
-704 698 -684 0
704 -698 -684 0
704 698 684 0
-705 704 -661 0
-705 -704 661 0
705 704 661 0
705 -704 -661 0
-706 66 681 0
-706 -66 705 0
706 66 -681 0
706 -66 -705 0
-707 -706 703 0
-707 706 -703 0
707 -706 -703 0
707 706 703 0
-708 707 -692 0
-708 -707 692 0
708 707 692 0
708 -707 -692 0
-709 67 692 0
-709 -67 708 0
709 67 -692 0
709 -67 -708 0
710 -709 50 0
710 709 -50 0
-711 702 -673 0
-711 -702 673 0
711 702 673 0
711 -702 -673 0
-712 66 673 0
-712 -66 711 0
712 66 -673 0
712 -66 -711 0
-713 696 -686 0
-713 -696 686 0
713 696 686 0
713 -696 -686 0
-714 713 -682 0
-714 -713 682 0
714 713 682 0
714 -713 -682 0
-715 714 -661 0
-715 -714 661 0
715 714 661 0
715 -714 -661 0
-716 66 686 0
-716 -66 715 0
716 66 -686 0
716 -66 -715 0
-717 716 -706 0
-717 -716 706 0
717 716 706 0
717 -716 -706 0
-718 717 -712 0
-718 -717 712 0
718 717 712 0
718 -717 -712 0
-719 718 -692 0
-719 -718 692 0
719 718 692 0
719 -718 -692 0
-720 67 712 0
-720 -67 719 0
720 67 -712 0
720 -67 -719 0
721 -720 49 0
721 720 -49 0
-722 698 -682 0
-722 -698 682 0
722 698 682 0
722 -698 -682 0
-723 722 -681 0
-723 -722 681 0
723 722 681 0
723 -722 -681 0
-724 723 -673 0
-724 -723 673 0
724 723 673 0
724 -723 -673 0
-725 724 -661 0
-725 -724 661 0
725 724 661 0
725 -724 -661 0
-726 66 698 0
-726 -66 725 0
726 66 -698 0
726 -66 -725 0
-727 696 -684 0
-727 -696 684 0
727 696 684 0
727 -696 -684 0
-728 727 -673 0
-728 -727 673 0
728 727 673 0
728 -727 -673 0
-729 66 682 0
-729 -66 728 0
729 66 -682 0
729 -66 -728 0
-730 -729 726 0
-730 729 -726 0
730 -729 -726 0
730 729 726 0
-731 730 -706 0
-731 -730 706 0
731 730 706 0
731 -730 -706 0
-732 731 -712 0
-732 -731 712 0
732 731 712 0
732 -731 -712 0
-733 67 706 0
-733 -67 732 0
733 67 -706 0
733 -67 -732 0
734 -733 48 0
734 733 -48 0
-735 66 684 0
-735 -66 690 0
735 66 -684 0
735 -66 -690 0
-736 735 -716 0
-736 -735 716 0
736 735 716 0
736 -735 -716 0
-737 736 -729 0
-737 -736 729 0
737 736 729 0
737 -736 -729 0
-738 737 -706 0
-738 -737 706 0
738 737 706 0
738 -737 -706 0
-739 67 729 0
-739 -67 738 0
739 67 -729 0
739 -67 -738 0
740 -739 47 0
740 739 -47 0
-741 -726 703 0
-741 726 -703 0
741 -726 -703 0
741 726 703 0
-742 741 -716 0
-742 -741 716 0
742 741 716 0
742 -741 -716 0
-743 742 -729 0
-743 -742 729 0
743 742 729 0
743 -742 -729 0
-744 67 716 0
-744 -67 743 0
744 67 -716 0
744 -67 -743 0
745 -744 46 0
745 744 -46 0
-746 735 -726 0
-746 -735 726 0
746 735 726 0
746 -735 -726 0
-747 746 -729 0
-747 -746 729 0
747 746 729 0
747 -746 -729 0
-748 747 -706 0
-748 -747 706 0
748 747 706 0
748 -747 -706 0
-749 748 -692 0
-749 -748 692 0
749 748 692 0
749 -748 -692 0
-750 67 726 0
-750 -67 749 0
750 67 -726 0
750 -67 -749 0
751 -750 45 0
751 750 -45 0
-752 -735 703 0
-752 735 -703 0
752 -735 -703 0
752 735 703 0
-753 752 -716 0
-753 -752 716 0
753 752 716 0
753 -752 -716 0
-754 753 -729 0
-754 -753 729 0
754 753 729 0
754 -753 -729 0
-755 754 -712 0
-755 -754 712 0
755 754 712 0
755 -754 -712 0
-756 67 735 0
-756 -67 755 0
756 67 -735 0
756 -67 -755 0
757 -756 44 0
757 756 -44 0
-758 741 -729 0
-758 -741 729 0
758 741 729 0
758 -741 -729 0
-759 758 -692 0
-759 -758 692 0
759 758 692 0
759 -758 -692 0
-760 67 703 0
-760 -67 759 0
760 67 -703 0
760 -67 -759 0
761 -760 43 0
761 760 -43 0
762 60 59 0
762 -60 -59 0
763 67 553 0
764 553 -67 0
764 -553 67 0
765 66 -764 0
766 553 -765 0
-767 -763 0
-767 -766 0
768 -553 66 0
768 553 -66 0
769 -764 -768 0
770 65 -769 0
771 553 -770 0
-772 767 0
-772 -771 0
773 -553 65 0
773 553 -65 0
774 -769 -773 0
775 64 -774 0
776 553 -775 0
-777 772 0
-777 -776 0
778 -553 64 0
778 553 -64 0
779 -774 -778 0
780 63 -779 0
781 553 -780 0
-782 777 0
-782 -781 0
783 -553 63 0
783 553 -63 0
784 -779 -783 0
785 62 -784 0
786 553 -785 0
-787 782 0
-787 -786 0
788 -553 62 0
788 553 -62 0
789 -784 -788 0
790 61 -789 0
791 553 -790 0
-792 787 0
-792 -791 0
793 -553 61 0
793 553 -61 0
794 -789 -793 0
795 60 -794 0
-796 792 0
-796 -795 0
797 553 796 0
798 -762 -797 0
799 -761 -798 0
800 -757 -799 0
801 -751 -800 0
802 -745 -801 0
803 -740 -802 0
804 -734 -803 0
805 -721 -804 0
806 -710 -805 0
-807 -562 0
-807 -806 0
808 -540 807 0
809 -1 -808 0
-810 1 0
-810 496 0
-811 1 0
-811 810 0
-812 398 0
-812 811 0
-813 -809 0
-813 812 0
813 0
