p cnf 89 126
1 0
-19 2 1 0
-19 -2 -1 0
-20 1 0
-20 19 0
-21 3 1 0
-21 -3 -1 0
-22 20 0
-22 21 0
-23 4 1 0
-23 -4 -1 0
-24 22 0
-24 23 0
-25 5 1 0
-25 -5 -1 0
-26 24 0
-26 25 0
-27 6 1 0
-27 -6 -1 0
-28 26 0
-28 27 0
-29 7 1 0
-29 -7 -1 0
-30 28 0
-30 29 0
-31 8 1 0
-31 -8 -1 0
-32 30 0
-32 31 0
-33 9 1 0
-33 -9 -1 0
-34 32 0
-34 33 0
-35 10 1 0
-35 -10 -1 0
-36 34 0
-36 35 0
-37 11 1 0
-37 -11 -1 0
-38 36 0
-38 37 0
-39 12 1 0
-39 -12 -1 0
-40 38 0
-40 39 0
-41 13 1 0
-41 -13 -1 0
-42 40 0
-42 41 0
-43 14 1 0
-43 -14 -1 0
-44 42 0
-44 43 0
-45 15 1 0
-45 -15 -1 0
-46 44 0
-46 45 0
-47 16 1 0
-47 -16 -1 0
-48 46 0
-48 47 0
-49 17 1 0
-49 -17 -1 0
-50 48 0
-50 49 0
-51 18 1 0
-51 -18 -1 0
-52 50 0
-52 51 0
-53 1 0
-53 52 0
54 2 -1 0
54 -2 1 0
55 -1 -54 0
56 3 -1 0
56 -3 1 0
57 -55 -56 0
58 4 -1 0
58 -4 1 0
59 -57 -58 0
60 5 -1 0
60 -5 1 0
61 -59 -60 0
62 6 -1 0
62 -6 1 0
63 -61 -62 0
64 7 -1 0
64 -7 1 0
65 -63 -64 0
66 8 -1 0
66 -8 1 0
67 -65 -66 0
68 9 -1 0
68 -9 1 0
69 -67 -68 0
70 10 -1 0
70 -10 1 0
71 -69 -70 0
72 11 -1 0
72 -11 1 0
73 -71 -72 0
74 12 -1 0
74 -12 1 0
75 -73 -74 0
76 13 -1 0
76 -13 1 0
77 -75 -76 0
78 14 -1 0
78 -14 1 0
79 -77 -78 0
80 15 -1 0
80 -15 1 0
81 -79 -80 0
82 16 -1 0
82 -16 1 0
83 -81 -82 0
84 17 -1 0
84 -17 1 0
85 -83 -84 0
86 18 -1 0
86 -18 1 0
87 -85 -86 0
88 -1 -87 0
-89 53 0
-89 -88 0
89 0
