p cnf 395 1083
1 0
-35 -2 0
-35 -3 0
-36 -4 0
-36 -5 0
-37 35 0
-37 36 0
-38 -6 0
-38 -7 0
-39 -8 0
-39 -9 0
-40 38 0
-40 39 0
-41 37 0
-41 40 0
-42 -17 13 0
-42 17 -13 0
42 -17 -13 0
42 17 13 0
-43 42 14 0
-43 -42 -14 0
43 42 -14 0
43 -42 14 0
-44 43 15 0
-44 -43 -15 0
44 43 -15 0
44 -43 15 0
45 18 19 0
46 20 21 0
47 -45 -46 0
48 22 23 0
49 24 25 0
50 -48 -49 0
51 -47 -50 0
52 44 18 0
52 -44 -18 0
53 -19 10 0
53 19 -10 0
-54 -52 0
-54 -53 0
55 -20 11 0
55 20 -11 0
56 -21 12 0
56 21 -12 0
-57 -55 0
-57 -56 0
-58 54 0
-58 57 0
59 -22 13 0
59 22 -13 0
60 -23 14 0
60 23 -14 0
-61 -59 0
-61 -60 0
62 -24 15 0
62 24 -15 0
63 -25 16 0
63 25 -16 0
-64 -62 0
-64 -63 0
-65 61 0
-65 64 0
-66 58 0
-66 65 0
-67 -51 0
-67 66 0
68 2 3 0
69 4 5 0
70 -68 -69 0
71 6 7 0
72 8 9 0
73 -71 -72 0
74 -70 -73 0
-75 -17 13 0
-75 17 -13 0
75 -17 -13 0
75 17 13 0
-76 75 14 0
-76 -75 -14 0
76 75 -14 0
76 -75 14 0
-77 76 15 0
-77 -76 -15 0
77 76 -15 0
77 -76 15 0
-78 -18 0
-78 -19 0
78 18 19 0
-79 -20 0
-79 -21 0
-80 78 0
-80 79 0
-81 -22 0
-81 -23 0
-82 -24 0
-82 -25 0
-83 81 0
-83 82 0
-84 80 0
-84 83 0
-85 77 -18 0
-85 -77 18 0
-86 -19 -10 0
-86 19 10 0
87 85 86 0
-88 -20 -11 0
-88 20 11 0
-89 -21 -12 0
-89 21 12 0
90 88 89 0
91 -87 -90 0
-92 -22 -13 0
-92 22 13 0
-93 -23 -14 0
-93 23 14 0
94 92 93 0
-95 -24 -15 0
-95 24 15 0
-96 -25 -16 0
-96 25 16 0
97 95 96 0
98 -94 -97 0
99 -91 -98 0
100 84 -99 0
-101 26 0
-101 67 0
-102 41 0
-102 101 0
-103 -10 0
-103 44 0
-104 -11 0
-104 -12 0
-105 103 0
-105 104 0
-106 -13 0
-106 -14 0
-107 -15 0
-107 -16 0
-108 106 0
-108 107 0
-109 105 0
-109 108 0
-110 -51 0
-110 109 0
111 102 110 0
112 -1 -111 0
113 -26 -100 0
114 -74 -113 0
115 10 -77 0
116 11 12 0
117 -115 -116 0
118 13 14 0
119 15 16 0
120 -118 -119 0
121 -117 -120 0
122 84 -121 0
-123 -114 0
-123 -122 0
-124 -27 0
-124 -28 0
-125 -29 0
-125 124 0
-126 -30 0
-126 125 0
-127 -31 0
-127 126 0
-128 -32 0
-128 127 0
-129 -33 0
-129 128 0
-130 -34 0
-130 129 0
-131 -20 0
-131 78 0
131 20 -78 0
-132 -21 0
-132 131 0
132 21 -131 0
-133 -22 0
-133 132 0
133 22 -132 0
-134 -23 0
-134 133 0
134 23 -133 0
-135 -24 0
-135 134 0
135 24 -134 0
-136 -25 0
-136 135 0
136 25 -135 0
-137 -10 0
-137 -11 0
-138 -12 0
-138 137 0
-139 -13 0
-139 138 0
-140 -14 0
-140 139 0
-141 -15 0
-141 140 0
-142 -16 0
-142 141 0
-143 -17 0
-143 142 0
-144 136 0
-144 143 0
-145 130 0
-145 144 0
-146 27 -25 0
-146 -27 -24 0
146 27 25 0
146 -27 24 0
-147 27 -23 0
-147 -27 -22 0
147 27 23 0
147 -27 22 0
-148 27 -21 0
-148 -27 -20 0
148 27 21 0
148 -27 20 0
-149 27 -22 0
-149 -27 -21 0
149 27 22 0
149 -27 21 0
-150 -149 148 0
-150 149 -148 0
150 -149 -148 0
150 149 148 0
-151 150 -147 0
-151 -150 147 0
151 150 147 0
151 -150 -147 0
-152 151 -146 0
-152 -151 146 0
152 151 146 0
152 -151 -146 0
-153 27 -19 0
-153 -27 -18 0
153 27 19 0
153 -27 18 0
-154 28 153 0
-154 -28 152 0
154 28 -153 0
154 -28 -152 0
-155 28 147 0
-155 -28 148 0
155 28 -147 0
155 -28 -148 0
-156 29 155 0
-156 -29 154 0
156 29 -155 0
156 -29 -154 0
-157 28 146 0
-157 -28 147 0
157 28 -146 0
157 -28 -147 0
-158 28 148 0
-158 -28 153 0
158 28 -148 0
158 -28 -153 0
-159 27 -20 0
-159 -27 -19 0
159 27 20 0
159 -27 19 0
-160 28 149 0
-160 -28 159 0
160 28 -149 0
160 -28 -159 0
-161 -160 158 0
-161 160 -158 0
161 -160 -158 0
161 160 158 0
-162 161 -155 0
-162 -161 155 0
162 161 155 0
162 -161 -155 0
-163 162 -157 0
-163 -162 157 0
163 162 157 0
163 -162 -157 0
-164 29 158 0
-164 -29 163 0
164 29 -158 0
164 -29 -163 0
-165 22 -21 0
-165 -22 21 0
165 22 21 0
165 -22 -21 0
-166 165 23 0
-166 -165 -23 0
166 165 -23 0
166 -165 23 0
-167 166 25 0
-167 -166 -25 0
167 166 -25 0
167 -166 25 0
-168 27 -18 0
-168 -27 167 0
168 27 18 0
168 -27 -167 0
-169 28 159 0
-169 -28 168 0
169 28 -159 0
169 -28 -168 0
-170 -169 154 0
-170 169 -154 0
170 -169 -154 0
170 169 154 0
-171 170 -158 0
-171 -170 158 0
171 170 158 0
171 -170 -158 0
-172 171 -155 0
-172 -171 155 0
172 171 155 0
172 -171 -155 0
-173 29 154 0
-173 -29 172 0
173 29 -154 0
173 -29 -172 0
-174 27 -24 0
-174 -27 -23 0
174 27 24 0
174 -27 23 0
-175 28 174 0
-175 -28 149 0
175 28 -174 0
175 -28 -149 0
-176 169 -158 0
-176 -169 158 0
176 169 158 0
176 -169 -158 0
-177 176 -160 0
-177 -176 160 0
177 176 160 0
177 -176 -160 0
-178 177 -175 0
-178 -177 175 0
178 177 175 0
178 -177 -175 0
-179 29 169 0
-179 -29 178 0
179 29 -169 0
179 -29 -178 0
-180 -179 173 0
-180 179 -173 0
180 -179 -173 0
180 179 173 0
-181 180 -164 0
-181 -180 164 0
181 180 164 0
181 -180 -164 0
-182 181 -156 0
-182 -181 156 0
182 181 156 0
182 -181 -156 0
-183 30 156 0
-183 -30 182 0
183 30 -156 0
183 -30 -182 0
-184 29 157 0
-184 -29 158 0
184 29 -157 0
184 -29 -158 0
-185 29 175 0
-185 -29 169 0
185 29 -175 0
185 -29 -169 0
-186 -185 164 0
-186 185 -164 0
186 -185 -164 0
186 185 164 0
-187 186 -184 0
-187 -186 184 0
187 186 184 0
187 -186 -184 0
-188 30 173 0
-188 -30 187 0
188 30 -173 0
188 -30 -187 0
-189 159 -148 0
-189 -159 148 0
189 159 148 0
189 -159 -148 0
-190 189 -149 0
-190 -189 149 0
190 189 149 0
190 -189 -149 0
-191 190 -174 0
-191 -190 174 0
191 190 174 0
191 -190 -174 0
-192 28 168 0
-192 -28 191 0
192 28 -168 0
192 -28 -191 0
-193 29 160 0
-193 -29 192 0
193 29 -160 0
193 -29 -192 0
-194 192 -154 0
-194 -192 154 0
194 192 154 0
194 -192 -154 0
-195 194 -169 0
-195 -194 169 0
195 194 169 0
195 -194 -169 0
-196 195 -160 0
-196 -195 160 0
196 195 160 0
196 -195 -160 0
-197 29 192 0
-197 -29 196 0
197 29 -192 0
197 -29 -196 0
-198 197 -173 0
-198 -197 173 0
198 197 173 0
198 -197 -173 0
-199 198 -179 0
-199 -198 179 0
199 198 179 0
199 -198 -179 0
-200 199 -193 0
-200 -199 193 0
200 199 193 0
200 -199 -193 0
-201 30 193 0
-201 -30 200 0
201 30 -193 0
201 -30 -200 0
-202 -201 188 0
-202 201 -188 0
202 -201 -188 0
202 201 188 0
-203 202 -183 0
-203 -202 183 0
203 202 183 0
203 -202 -183 0
-204 -193 164 0
-204 193 -164 0
204 -193 -164 0
204 193 164 0
-205 204 -156 0
-205 -204 156 0
205 204 156 0
205 -204 -156 0
-206 205 -184 0
-206 -205 184 0
206 205 184 0
206 -205 -184 0
-207 30 184 0
-207 -30 206 0
207 30 -184 0
207 -30 -206 0
-208 31 207 0
-208 -31 203 0
208 31 -207 0
208 -31 -203 0
-209 197 -156 0
-209 -197 156 0
209 197 156 0
209 -197 -156 0
-210 209 -185 0
-210 -209 185 0
210 209 185 0
210 -209 -185 0
-211 210 -184 0
-211 -210 184 0
211 210 184 0
211 -210 -184 0
-212 30 179 0
-212 -30 211 0
212 30 -179 0
212 -30 -211 0
-213 212 -201 0
-213 -212 201 0
213 212 201 0
213 -212 -201 0
-214 213 -183 0
-214 -213 183 0
214 213 183 0
214 -213 -183 0
-215 214 -207 0
-215 -214 207 0
215 214 207 0
215 -214 -207 0
-216 31 183 0
-216 -31 215 0
216 31 -183 0
216 -31 -215 0
-217 179 -164 0
-217 -179 164 0
217 179 164 0
217 -179 -164 0
-218 217 -193 0
-218 -217 193 0
218 217 193 0
218 -217 -193 0
-219 218 -185 0
-219 -218 185 0
219 218 185 0
219 -218 -185 0
-220 30 185 0
-220 -30 219 0
220 30 -185 0
220 -30 -219 0
-221 198 -193 0
-221 -198 193 0
221 198 193 0
221 -198 -193 0
-222 221 -156 0
-222 -221 156 0
222 221 156 0
222 -221 -156 0
-223 222 -184 0
-223 -222 184 0
223 222 184 0
223 -222 -184 0
-224 30 164 0
-224 -30 223 0
224 30 -164 0
224 -30 -223 0
-225 -224 188 0
-225 224 -188 0
225 -224 -188 0
225 224 188 0
-226 225 -201 0
-226 -225 201 0
226 225 201 0
226 -225 -201 0
-227 226 -220 0
-227 -226 220 0
227 226 220 0
227 -226 -220 0
-228 31 201 0
-228 -31 227 0
228 31 -201 0
228 -31 -227 0
-229 179 -156 0
-229 -179 156 0
229 179 156 0
229 -179 -156 0
-230 229 -185 0
-230 -229 185 0
230 229 185 0
230 -229 -185 0
-231 30 197 0
-231 -30 230 0
231 30 -197 0
231 -30 -230 0
-232 231 -188 0
-232 -231 188 0
232 231 188 0
232 -231 -188 0
-233 232 -201 0
-233 -232 201 0
233 232 201 0
233 -232 -201 0
-234 233 -207 0
-234 -233 207 0
234 233 207 0
234 -233 -207 0
-235 31 231 0
-235 -31 234 0
235 31 -231 0
235 -31 -234 0
-236 231 -212 0
-236 -231 212 0
236 231 212 0
236 -231 -212 0
-237 236 -224 0
-237 -236 224 0
237 236 224 0
237 -236 -224 0
-238 237 -183 0
-238 -237 183 0
238 237 183 0
238 -237 -183 0
-239 31 224 0
-239 -31 238 0
239 31 -224 0
239 -31 -238 0
-240 -239 235 0
-240 239 -235 0
240 -239 -235 0
240 239 235 0
-241 240 -228 0
-241 -240 228 0
241 240 228 0
241 -240 -228 0
-242 241 -216 0
-242 -241 216 0
242 241 216 0
242 -241 -216 0
-243 242 -208 0
-243 -242 208 0
243 242 208 0
243 -242 -208 0
-244 32 208 0
-244 -32 243 0
244 32 -208 0
244 -32 -243 0
-245 231 -224 0
-245 -231 224 0
245 231 224 0
245 -231 -224 0
-246 245 -201 0
-246 -245 201 0
246 245 201 0
246 -245 -201 0
-247 31 220 0
-247 -31 246 0
247 31 -220 0
247 -31 -246 0
-248 -212 188 0
-248 212 -188 0
248 -212 -188 0
248 212 188 0
-249 248 -224 0
-249 -248 224 0
249 248 224 0
249 -248 -224 0
-250 249 -183 0
-250 -249 183 0
250 249 183 0
250 -249 -183 0
-251 250 -207 0
-251 -250 207 0
251 250 207 0
251 -250 -207 0
-252 31 212 0
-252 -31 251 0
252 31 -212 0
252 -31 -251 0
-253 252 -216 0
-253 -252 216 0
253 252 216 0
253 -252 -216 0
-254 253 -247 0
-254 -253 247 0
254 253 247 0
254 -253 -247 0
-255 254 -208 0
-255 -254 208 0
255 254 208 0
255 -254 -208 0
-256 32 247 0
-256 -32 255 0
256 32 -247 0
256 -32 -255 0
-257 232 -212 0
-257 -232 212 0
257 232 212 0
257 -232 -212 0
-258 257 -201 0
-258 -257 201 0
258 257 201 0
258 -257 -201 0
-259 258 -220 0
-259 -258 220 0
259 258 220 0
259 -258 -220 0
-260 31 188 0
-260 -31 259 0
260 31 -188 0
260 -31 -259 0
-261 260 -228 0
-261 -260 228 0
261 260 228 0
261 -260 -228 0
-262 261 -216 0
-262 -261 216 0
262 261 216 0
262 -261 -216 0
-263 262 -247 0
-263 -262 247 0
263 262 247 0
263 -262 -247 0
-264 32 216 0
-264 -32 263 0
264 32 -216 0
264 -32 -263 0
-265 32 228 0
-265 -32 242 0
265 32 -228 0
265 -32 -242 0
-266 240 -216 0
-266 -240 216 0
266 240 216 0
266 -240 -216 0
-267 32 260 0
-267 -32 266 0
267 32 -260 0
267 -32 -266 0
-268 253 -208 0
-268 -253 208 0
268 253 208 0
268 -253 -208 0
-269 32 239 0
-269 -32 268 0
269 32 -239 0
269 -32 -268 0
-270 -269 267 0
-270 269 -267 0
270 -269 -267 0
270 269 267 0
-271 270 -265 0
-271 -270 265 0
271 270 265 0
271 -270 -265 0
-272 271 -264 0
-272 -271 264 0
272 271 264 0
272 -271 -264 0
-273 272 -256 0
-273 -272 256 0
273 272 256 0
273 -272 -256 0
-274 273 -244 0
-274 -273 244 0
274 273 244 0
274 -273 -244 0
-275 33 244 0
-275 -33 274 0
275 33 -244 0
275 -33 -274 0
-276 252 -239 0
-276 -252 239 0
276 252 239 0
276 -252 -239 0
-277 276 -216 0
-277 -276 216 0
277 276 216 0
277 -276 -216 0
-278 277 -208 0
-278 -277 208 0
278 277 208 0
278 -277 -208 0
-279 32 235 0
-279 -32 278 0
279 32 -235 0
279 -32 -278 0
-280 261 -247 0
-280 -261 247 0
280 261 247 0
280 -261 -247 0
-281 32 252 0
-281 -32 280 0
281 32 -252 0
281 -32 -280 0
-282 -281 279 0
-282 281 -279 0
282 -281 -279 0
282 281 279 0
-283 282 -269 0
-283 -282 269 0
283 282 269 0
283 -282 -269 0
-284 283 -265 0
-284 -283 265 0
284 283 265 0
284 -283 -265 0
-285 284 -264 0
-285 -284 264 0
285 284 264 0
285 -284 -264 0
-286 33 279 0
-286 -33 285 0
286 33 -279 0
286 -33 -285 0
-287 -281 267 0
-287 281 -267 0
287 -281 -267 0
287 281 267 0
-288 287 -244 0
-288 -287 244 0
288 287 244 0
288 -287 -244 0
-289 33 264 0
-289 -33 288 0
289 33 -264 0
289 -33 -288 0
-290 -289 286 0
-290 289 -286 0
290 -289 -286 0
290 289 286 0
-291 290 -275 0
-291 -290 275 0
291 290 275 0
291 -290 -275 0
-292 34 275 0
-292 -34 291 0
292 34 -275 0
292 -34 -291 0
-293 -292 -17 0
-293 292 17 0
-294 285 -256 0
-294 -285 256 0
294 285 256 0
294 -285 -256 0
-295 33 256 0
-295 -33 294 0
295 33 -256 0
295 -33 -294 0
-296 279 -269 0
-296 -279 269 0
296 279 269 0
296 -279 -269 0
-297 296 -265 0
-297 -296 265 0
297 296 265 0
297 -296 -265 0
-298 297 -244 0
-298 -297 244 0
298 297 244 0
298 -297 -244 0
-299 33 269 0
-299 -33 298 0
299 33 -269 0
299 -33 -298 0
-300 299 -289 0
-300 -299 289 0
300 299 289 0
300 -299 -289 0
-301 300 -295 0
-301 -300 295 0
301 300 295 0
301 -300 -295 0
-302 301 -275 0
-302 -301 275 0
302 301 275 0
302 -301 -275 0
-303 34 295 0
-303 -34 302 0
303 34 -295 0
303 -34 -302 0
-304 -303 -16 0
-304 303 16 0
-305 281 -265 0
-305 -281 265 0
305 281 265 0
305 -281 -265 0
-306 305 -264 0
-306 -305 264 0
306 305 264 0
306 -305 -264 0
-307 306 -256 0
-307 -306 256 0
307 306 256 0
307 -306 -256 0
-308 307 -244 0
-308 -307 244 0
308 307 244 0
308 -307 -244 0
-309 33 281 0
-309 -33 308 0
309 33 -281 0
309 -33 -308 0
-310 279 -267 0
-310 -279 267 0
310 279 267 0
310 -279 -267 0
-311 310 -256 0
-311 -310 256 0
311 310 256 0
311 -310 -256 0
-312 33 265 0
-312 -33 311 0
312 33 -265 0
312 -33 -311 0
-313 -312 309 0
-313 312 -309 0
313 -312 -309 0
313 312 309 0
-314 313 -289 0
-314 -313 289 0
314 313 289 0
314 -313 -289 0
-315 314 -295 0
-315 -314 295 0
315 314 295 0
315 -314 -295 0
-316 34 289 0
-316 -34 315 0
316 34 -289 0
316 -34 -315 0
-317 -316 -15 0
-317 316 15 0
-318 33 267 0
-318 -33 273 0
318 33 -267 0
318 -33 -273 0
-319 318 -299 0
-319 -318 299 0
319 318 299 0
319 -318 -299 0
-320 319 -312 0
-320 -319 312 0
320 319 312 0
320 -319 -312 0
-321 320 -289 0
-321 -320 289 0
321 320 289 0
321 -320 -289 0
-322 34 312 0
-322 -34 321 0
322 34 -312 0
322 -34 -321 0
-323 -322 -14 0
-323 322 14 0
-324 -309 286 0
-324 309 -286 0
324 -309 -286 0
324 309 286 0
-325 324 -299 0
-325 -324 299 0
325 324 299 0
325 -324 -299 0
-326 325 -312 0
-326 -325 312 0
326 325 312 0
326 -325 -312 0
-327 34 299 0
-327 -34 326 0
327 34 -299 0
327 -34 -326 0
-328 -327 -13 0
-328 327 13 0
-329 318 -309 0
-329 -318 309 0
329 318 309 0
329 -318 -309 0
-330 329 -312 0
-330 -329 312 0
330 329 312 0
330 -329 -312 0
-331 330 -289 0
-331 -330 289 0
331 330 289 0
331 -330 -289 0
-332 331 -275 0
-332 -331 275 0
332 331 275 0
332 -331 -275 0
-333 34 309 0
-333 -34 332 0
333 34 -309 0
333 -34 -332 0
-334 -333 -12 0
-334 333 12 0
-335 -318 286 0
-335 318 -286 0
335 -318 -286 0
335 318 286 0
-336 335 -299 0
-336 -335 299 0
336 335 299 0
336 -335 -299 0
-337 336 -312 0
-337 -336 312 0
337 336 312 0
337 -336 -312 0
-338 337 -295 0
-338 -337 295 0
338 337 295 0
338 -337 -295 0
-339 34 318 0
-339 -34 338 0
339 34 -318 0
339 -34 -338 0
-340 -339 -11 0
-340 339 11 0
-341 324 -312 0
-341 -324 312 0
341 324 312 0
341 -324 -312 0
-342 341 -275 0
-342 -341 275 0
342 341 275 0
342 -341 -275 0
-343 34 286 0
-343 -34 342 0
343 34 -286 0
343 -34 -342 0
-344 -343 -10 0
-344 343 10 0
-345 27 -26 0
-345 -27 26 0
-346 -34 0
-346 -136 0
-347 136 34 0
-347 -136 -34 0
-348 -33 0
-348 347 0
-349 -136 0
-349 348 0
350 346 349 0
-351 -136 -33 0
-351 136 33 0
-352 347 0
-352 351 0
-353 -32 0
-353 352 0
-354 -136 0
-354 353 0
355 -350 354 0
-356 -136 -32 0
-356 136 32 0
-357 352 0
-357 356 0
-358 -31 0
-358 357 0
-359 -136 0
-359 358 0
360 -355 359 0
-361 -136 -31 0
-361 136 31 0
-362 357 0
-362 361 0
-363 -30 0
-363 362 0
-364 -136 0
-364 363 0
365 -360 364 0
-366 -136 -30 0
-366 136 30 0
-367 362 0
-367 366 0
-368 -29 0
-368 367 0
-369 -136 0
-369 368 0
370 -365 369 0
-371 -136 -29 0
-371 136 29 0
-372 367 0
-372 371 0
-373 -28 0
-373 372 0
-374 -136 0
-374 373 0
375 -370 374 0
-376 -136 -28 0
-376 136 28 0
-377 372 0
-377 376 0
-378 -27 0
-378 377 0
379 -375 378 0
-380 -136 0
-380 -379 0
-381 345 0
-381 380 0
-382 344 0
-382 381 0
-383 340 0
-383 382 0
-384 334 0
-384 383 0
-385 328 0
-385 384 0
-386 323 0
-386 385 0
-387 317 0
-387 386 0
-388 304 0
-388 387 0
-389 293 0
-389 388 0
390 145 389 0
-391 123 0
-391 -390 0
-392 1 0
-392 391 0
-393 1 0
-393 1 0
-394 392 0
-394 393 0
-395 -112 0
-395 394 0
395 0
