p cnf 218 490
1 0
-44 -2 0
-44 -3 0
44 2 3 0
-45 -4 0
-45 -5 0
45 4 5 0
-46 44 0
-46 45 0
46 -44 -45 0
-47 -6 0
-47 -7 0
47 6 7 0
-48 -8 0
-48 -9 0
48 8 9 0
-49 47 0
-49 48 0
49 -47 -48 0
-50 46 0
-50 49 0
50 -46 -49 0
-51 -17 13 0
-51 17 -13 0
51 -17 -13 0
51 17 13 0
-52 51 14 0
-52 -51 -14 0
52 51 -14 0
52 -51 14 0
-53 52 15 0
-53 -52 -15 0
53 52 -15 0
53 -52 15 0
-54 -50 53 0
-54 50 -2 0
54 -50 -53 0
54 50 2 0
-55 -54 -27 0
-55 54 27 0
-56 1 0
-56 55 0
-57 -50 -10 0
-57 50 -3 0
57 -50 10 0
57 50 3 0
-58 -57 -28 0
-58 57 28 0
-59 56 0
-59 58 0
-60 -50 -11 0
-60 50 -4 0
60 -50 11 0
60 50 4 0
-61 -60 -29 0
-61 60 29 0
-62 59 0
-62 61 0
-63 -50 -12 0
-63 50 -5 0
63 -50 12 0
63 50 5 0
-64 -63 -30 0
-64 63 30 0
-65 62 0
-65 64 0
-66 -50 -13 0
-66 50 -6 0
66 -50 13 0
66 50 6 0
-67 -66 -31 0
-67 66 31 0
-68 65 0
-68 67 0
-69 -50 -14 0
-69 50 -7 0
69 -50 14 0
69 50 7 0
-70 -69 -32 0
-70 69 32 0
-71 68 0
-71 70 0
-72 -50 -15 0
-72 50 -8 0
72 -50 15 0
72 50 8 0
-73 -72 -33 0
-73 72 33 0
-74 71 0
-74 73 0
-75 -50 -16 0
-75 50 -9 0
75 -50 16 0
75 50 9 0
-76 -75 -34 0
-76 75 34 0
-77 74 0
-77 76 0
-78 -50 -18 0
-78 50 -2 0
78 -50 18 0
78 50 2 0
-79 -78 -35 0
-79 78 35 0
-80 77 0
-80 79 0
-81 -50 -19 0
-81 50 -3 0
81 -50 19 0
81 50 3 0
-82 -81 -36 0
-82 81 36 0
-83 80 0
-83 82 0
-84 -50 -20 0
-84 50 -4 0
84 -50 20 0
84 50 4 0
-85 -84 -37 0
-85 84 37 0
-86 83 0
-86 85 0
-87 -50 -21 0
-87 50 -5 0
87 -50 21 0
87 50 5 0
-88 -87 -38 0
-88 87 38 0
-89 86 0
-89 88 0
-90 -50 -22 0
-90 50 -6 0
90 -50 22 0
90 50 6 0
-91 -90 -39 0
-91 90 39 0
-92 89 0
-92 91 0
-93 -50 -23 0
-93 50 -7 0
93 -50 23 0
93 50 7 0
-94 -93 -40 0
-94 93 40 0
-95 92 0
-95 94 0
-96 -50 -24 0
-96 50 -8 0
96 -50 24 0
96 50 8 0
-97 -96 -41 0
-97 96 41 0
-98 95 0
-98 97 0
-99 -50 -25 0
-99 50 -9 0
99 -50 25 0
99 50 9 0
-100 -99 -42 0
-100 99 42 0
-101 98 0
-101 100 0
-102 -18 0
-102 -19 0
102 18 19 0
-103 -20 0
-103 -21 0
103 20 21 0
-104 102 0
-104 103 0
104 -102 -103 0
-105 -22 0
-105 -23 0
105 22 23 0
-106 -24 0
-106 -25 0
106 24 25 0
-107 105 0
-107 106 0
107 -105 -106 0
-108 104 0
-108 107 0
108 -104 -107 0
-109 53 -18 0
-109 -53 18 0
109 53 18 0
109 -53 -18 0
-110 -19 -10 0
-110 19 10 0
110 -19 10 0
110 19 -10 0
-111 -109 0
-111 -110 0
111 109 110 0
-112 -20 -11 0
-112 20 11 0
112 -20 11 0
112 20 -11 0
-113 -21 -12 0
-113 21 12 0
113 -21 12 0
113 21 -12 0
-114 -112 0
-114 -113 0
114 112 113 0
-115 111 0
-115 114 0
115 -111 -114 0
-116 -22 -13 0
-116 22 13 0
116 -22 13 0
116 22 -13 0
-117 -23 -14 0
-117 23 14 0
117 -23 14 0
117 23 -14 0
-118 -116 0
-118 -117 0
118 116 117 0
-119 -24 -15 0
-119 24 15 0
119 -24 15 0
119 24 -15 0
-120 -25 -16 0
-120 25 16 0
120 -25 16 0
120 25 -16 0
-121 -119 0
-121 -120 0
121 119 120 0
-122 118 0
-122 121 0
122 -118 -121 0
-123 115 0
-123 122 0
123 -115 -122 0
-124 -108 0
-124 123 0
124 108 -123 0
-125 50 0
-125 -124 0
125 -50 124 0
-126 -26 0
-126 125 0
126 26 -125 0
-127 126 -43 0
-127 -126 43 0
-128 101 0
-128 127 0
-129 1 0
-129 128 0
-130 1 0
-130 129 0
-131 1 0
-131 130 0
-132 -2 0
-132 -3 0
132 2 3 0
-133 -4 0
-133 -5 0
133 4 5 0
-134 132 0
-134 133 0
134 -132 -133 0
-135 -6 0
-135 -7 0
135 6 7 0
-136 -8 0
-136 -9 0
136 8 9 0
-137 135 0
-137 136 0
137 -135 -136 0
-138 134 0
-138 137 0
138 -134 -137 0
-139 -17 13 0
-139 17 -13 0
139 -17 -13 0
139 17 13 0
-140 139 14 0
-140 -139 -14 0
140 139 -14 0
140 -139 14 0
-141 140 15 0
-141 -140 -15 0
141 140 -15 0
141 -140 15 0
-142 -138 141 0
-142 138 -2 0
142 -138 -141 0
142 138 2 0
143 -142 27 0
143 142 -27 0
144 -1 -143 0
-145 -138 -10 0
-145 138 -3 0
145 -138 10 0
145 138 3 0
146 -145 28 0
146 145 -28 0
147 -144 -146 0
-148 -138 -11 0
-148 138 -4 0
148 -138 11 0
148 138 4 0
149 -148 29 0
149 148 -29 0
150 -147 -149 0
-151 -138 -12 0
-151 138 -5 0
151 -138 12 0
151 138 5 0
152 -151 30 0
152 151 -30 0
153 -150 -152 0
-154 -138 -13 0
-154 138 -6 0
154 -138 13 0
154 138 6 0
155 -154 31 0
155 154 -31 0
156 -153 -155 0
-157 -138 -14 0
-157 138 -7 0
157 -138 14 0
157 138 7 0
158 -157 32 0
158 157 -32 0
159 -156 -158 0
-160 -138 -15 0
-160 138 -8 0
160 -138 15 0
160 138 8 0
161 -160 33 0
161 160 -33 0
162 -159 -161 0
-163 -138 -16 0
-163 138 -9 0
163 -138 16 0
163 138 9 0
164 -163 34 0
164 163 -34 0
165 -162 -164 0
-166 -138 -18 0
-166 138 -2 0
166 -138 18 0
166 138 2 0
167 -166 35 0
167 166 -35 0
168 -165 -167 0
-169 -138 -19 0
-169 138 -3 0
169 -138 19 0
169 138 3 0
170 -169 36 0
170 169 -36 0
171 -168 -170 0
-172 -138 -20 0
-172 138 -4 0
172 -138 20 0
172 138 4 0
173 -172 37 0
173 172 -37 0
174 -171 -173 0
-175 -138 -21 0
-175 138 -5 0
175 -138 21 0
175 138 5 0
176 -175 38 0
176 175 -38 0
177 -174 -176 0
-178 -138 -22 0
-178 138 -6 0
178 -138 22 0
178 138 6 0
179 -178 39 0
179 178 -39 0
180 -177 -179 0
-181 -138 -23 0
-181 138 -7 0
181 -138 23 0
181 138 7 0
182 -181 40 0
182 181 -40 0
183 -180 -182 0
-184 -138 -24 0
-184 138 -8 0
184 -138 24 0
184 138 8 0
185 -184 41 0
185 184 -41 0
186 -183 -185 0
-187 -138 -25 0
-187 138 -9 0
187 -138 25 0
187 138 9 0
188 -187 42 0
188 187 -42 0
189 -186 -188 0
-190 -18 0
-190 -19 0
190 18 19 0
-191 -20 0
-191 -21 0
191 20 21 0
-192 190 0
-192 191 0
192 -190 -191 0
-193 -22 0
-193 -23 0
193 22 23 0
-194 -24 0
-194 -25 0
194 24 25 0
-195 193 0
-195 194 0
195 -193 -194 0
-196 192 0
-196 195 0
196 -192 -195 0
-197 141 -18 0
-197 -141 18 0
197 141 18 0
197 -141 -18 0
-198 -19 -10 0
-198 19 10 0
198 -19 10 0
198 19 -10 0
-199 -197 0
-199 -198 0
199 197 198 0
-200 -20 -11 0
-200 20 11 0
200 -20 11 0
200 20 -11 0
-201 -21 -12 0
-201 21 12 0
201 -21 12 0
201 21 -12 0
-202 -200 0
-202 -201 0
202 200 201 0
-203 199 0
-203 202 0
203 -199 -202 0
-204 -22 -13 0
-204 22 13 0
204 -22 13 0
204 22 -13 0
-205 -23 -14 0
-205 23 14 0
205 -23 14 0
205 23 -14 0
-206 -204 0
-206 -205 0
206 204 205 0
-207 -24 -15 0
-207 24 15 0
207 -24 15 0
207 24 -15 0
-208 -25 -16 0
-208 25 16 0
208 -25 16 0
208 25 -16 0
-209 -207 0
-209 -208 0
209 207 208 0
-210 206 0
-210 209 0
210 -206 -209 0
-211 203 0
-211 210 0
211 -203 -210 0
-212 -196 0
-212 211 0
212 196 -211 0
-213 138 0
-213 -212 0
213 -138 212 0
-214 -26 0
-214 213 0
214 26 -213 0
215 214 43 0
215 -214 -43 0
216 -189 -215 0
217 -1 -216 0
-218 131 0
-218 -217 0
218 0
