p cnf 197 466
1 0
-24 -2 0
-24 -3 0
-25 -4 0
-25 24 0
-26 -5 0
-26 25 0
-27 -6 0
-27 26 0
-28 11 -7 0
-28 -11 7 0
28 11 7 0
28 -11 -7 0
-29 -12 0
-29 -13 0
29 12 13 0
-30 -14 0
-30 29 0
30 14 -29 0
-31 -15 0
-31 30 0
31 15 -30 0
-32 -16 0
-32 31 0
32 16 -31 0
-33 28 12 0
-33 -28 -12 0
-34 13 -7 0
-34 -13 7 0
-35 33 0
-35 34 0
-36 14 -8 0
-36 -14 8 0
-37 35 0
-37 36 0
-38 15 -9 0
-38 -15 9 0
-39 37 0
-39 38 0
-40 16 -10 0
-40 -16 10 0
-41 39 0
-41 40 0
-42 -32 0
-42 41 0
-43 17 0
-43 27 0
-44 42 0
-44 43 0
-45 -7 0
-45 28 0
-46 -8 0
-46 45 0
-47 -9 0
-47 46 0
-48 -10 0
-48 47 0
-49 -32 0
-49 48 0
50 44 49 0
51 18 19 0
52 20 -51 0
53 21 -52 0
54 22 -53 0
55 23 -54 0
56 7 8 0
57 9 -56 0
58 10 -57 0
59 11 -58 0
60 -32 -59 0
61 -55 -60 0
-62 18 -16 0
-62 -18 -15 0
62 18 16 0
62 -18 15 0
-63 16 -12 0
-63 -16 12 0
63 16 12 0
63 -16 -12 0
-64 18 -12 0
-64 -18 63 0
64 18 12 0
64 -18 -63 0
-65 18 -15 0
-65 -18 -14 0
65 18 15 0
65 -18 14 0
-66 -65 64 0
-66 65 -64 0
66 -65 -64 0
66 65 64 0
-67 66 -62 0
-67 -66 62 0
67 66 62 0
67 -66 -62 0
-68 19 64 0
-68 -19 67 0
68 19 -64 0
68 -19 -67 0
-69 18 -14 0
-69 -18 -13 0
69 18 14 0
69 -18 13 0
-70 19 62 0
-70 -19 69 0
70 19 -62 0
70 -19 -69 0
-71 20 70 0
-71 -20 68 0
71 20 -70 0
71 -20 -68 0
-72 -70 68 0
-72 70 -68 0
72 -70 -68 0
72 70 68 0
-73 18 -13 0
-73 -18 -12 0
73 18 13 0
73 -18 12 0
-74 19 65 0
-74 -19 73 0
74 19 -65 0
74 -19 -73 0
-75 20 74 0
-75 -20 72 0
75 20 -74 0
75 -20 -72 0
-76 -74 68 0
-76 74 -68 0
76 -74 -68 0
76 74 68 0
-77 76 -70 0
-77 -76 70 0
77 76 70 0
77 -76 -70 0
-78 19 69 0
-78 -19 64 0
78 19 -69 0
78 -19 -64 0
-79 20 78 0
-79 -20 77 0
79 20 -78 0
79 -20 -77 0
-80 64 -62 0
-80 -64 62 0
80 64 62 0
80 -64 -62 0
-81 19 73 0
-81 -19 80 0
81 19 -73 0
81 -19 -80 0
-82 -81 68 0
-82 81 -68 0
82 -81 -68 0
82 81 68 0
-83 82 -78 0
-83 -82 78 0
83 82 78 0
83 -82 -78 0
-84 83 -74 0
-84 -83 74 0
84 83 74 0
84 -83 -74 0
-85 84 -70 0
-85 -84 70 0
85 84 70 0
85 -84 -70 0
-86 20 68 0
-86 -20 85 0
86 20 -68 0
86 -20 -85 0
-87 -78 68 0
-87 78 -68 0
87 -78 -68 0
87 78 68 0
-88 87 -74 0
-88 -87 74 0
88 87 74 0
88 -87 -74 0
-89 88 -70 0
-89 -88 70 0
89 88 70 0
89 -88 -70 0
-90 20 81 0
-90 -20 89 0
90 20 -81 0
90 -20 -89 0
-91 -90 86 0
-91 90 -86 0
91 -90 -86 0
91 90 86 0
-92 91 -79 0
-92 -91 79 0
92 91 79 0
92 -91 -79 0
-93 92 -75 0
-93 -92 75 0
93 92 75 0
93 -92 -75 0
-94 93 -71 0
-94 -93 71 0
94 93 71 0
94 -93 -71 0
-95 21 71 0
-95 -21 94 0
95 21 -71 0
95 -21 -94 0
-96 91 -75 0
-96 -91 75 0
96 91 75 0
96 -91 -75 0
-97 21 86 0
-97 -21 96 0
97 21 -86 0
97 -21 -96 0
-98 90 -79 0
-98 -90 79 0
98 90 79 0
98 -90 -79 0
-99 98 -71 0
-99 -98 71 0
99 98 71 0
99 -98 -71 0
-100 21 90 0
-100 -21 99 0
100 21 -90 0
100 -21 -99 0
-101 -100 97 0
-101 100 -97 0
101 -100 -97 0
101 100 97 0
-102 101 -95 0
-102 -101 95 0
102 101 95 0
102 -101 -95 0
-103 22 95 0
-103 -22 102 0
103 22 -95 0
103 -22 -102 0
-104 21 79 0
-104 -21 93 0
104 21 -79 0
104 -21 -93 0
-105 -104 100 0
-105 104 -100 0
105 -104 -100 0
105 104 100 0
-106 22 100 0
-106 -22 105 0
106 22 -100 0
106 -22 -105 0
-107 98 -75 0
-107 -98 75 0
107 98 75 0
107 -98 -75 0
-108 107 -71 0
-108 -107 71 0
108 107 71 0
108 -107 -71 0
-109 21 75 0
-109 -21 108 0
109 21 -75 0
109 -21 -108 0
-110 -109 104 0
-110 109 -104 0
110 -109 -104 0
110 109 104 0
-111 22 104 0
-111 -22 110 0
111 22 -104 0
111 -22 -110 0
-112 -111 106 0
-112 111 -106 0
112 -111 -106 0
112 111 106 0
-113 112 -103 0
-113 -112 103 0
113 112 103 0
113 -112 -103 0
-114 23 103 0
-114 -23 113 0
114 23 -103 0
114 -23 -113 0
115 -114 11 0
115 114 -11 0
-116 109 -95 0
-116 -109 95 0
116 109 95 0
116 -109 -95 0
-117 22 109 0
-117 -22 116 0
117 22 -109 0
117 -22 -116 0
-118 22 97 0
-118 -22 101 0
118 22 -97 0
118 -22 -101 0
-119 118 -106 0
-119 -118 106 0
119 118 106 0
119 -118 -106 0
-120 119 -117 0
-120 -119 117 0
120 119 117 0
120 -119 -117 0
-121 23 117 0
-121 -23 120 0
121 23 -117 0
121 -23 -120 0
122 -121 10 0
122 121 -10 0
-123 111 -103 0
-123 -111 103 0
123 111 103 0
123 -111 -103 0
-124 23 111 0
-124 -23 123 0
124 23 -111 0
124 -23 -123 0
125 -124 9 0
125 124 -9 0
-126 -117 106 0
-126 117 -106 0
126 -117 -106 0
126 117 106 0
-127 23 106 0
-127 -23 126 0
127 23 -106 0
127 -23 -126 0
128 -127 8 0
128 127 -8 0
-129 118 -111 0
-129 -118 111 0
129 118 111 0
129 -118 -111 0
-130 23 118 0
-130 -23 129 0
130 23 -118 0
130 -23 -129 0
131 -130 7 0
131 130 -7 0
132 18 17 0
132 -18 -17 0
-133 13 -12 0
-133 -13 12 0
133 13 12 0
133 -13 -12 0
-134 133 14 0
-134 -133 -14 0
134 133 -14 0
134 -133 14 0
-135 15 -12 0
-135 -15 12 0
135 15 12 0
135 -15 -12 0
-136 134 0
-136 135 0
136 -134 -135 0
-137 16 -13 0
-137 -16 13 0
137 16 13 0
137 -16 -13 0
-138 136 0
-138 137 0
138 -136 -137 0
139 22 23 0
140 21 -139 0
141 20 -140 0
142 138 -141 0
143 -138 20 0
143 138 -20 0
144 -140 -143 0
145 19 -144 0
146 138 -145 0
-147 -142 0
-147 -146 0
148 -138 19 0
148 138 -19 0
149 -144 -148 0
150 18 -149 0
-151 147 0
-151 -150 0
152 32 151 0
153 -132 -152 0
154 -131 -153 0
155 -128 -154 0
156 -125 -155 0
157 -122 -156 0
158 -115 -157 0
-159 -61 0
-159 -158 0
160 -50 159 0
161 -1 -160 0
-162 7 1 0
-162 -7 -1 0
-163 1 0
-163 162 0
-164 8 1 0
-164 -8 -1 0
-165 163 0
-165 164 0
-166 9 1 0
-166 -9 -1 0
-167 165 0
-167 166 0
-168 10 1 0
-168 -10 -1 0
-169 167 0
-169 168 0
-170 11 1 0
-170 -11 -1 0
-171 169 0
-171 170 0
-172 12 1 0
-172 -12 -1 0
-173 171 0
-173 172 0
-174 13 1 0
-174 -13 -1 0
-175 173 0
-175 174 0
-176 14 1 0
-176 -14 -1 0
-177 175 0
-177 176 0
-178 15 1 0
-178 -15 -1 0
-179 177 0
-179 178 0
-180 16 1 0
-180 -16 -1 0
-181 179 0
-181 180 0
-182 17 1 0
-182 -17 -1 0
-183 181 0
-183 182 0
-184 18 1 0
-184 -18 -1 0
-185 183 0
-185 184 0
-186 19 1 0
-186 -19 -1 0
-187 185 0
-187 186 0
-188 20 1 0
-188 -20 -1 0
-189 187 0
-189 188 0
-190 21 1 0
-190 -21 -1 0
-191 189 0
-191 190 0
-192 22 1 0
-192 -22 -1 0
-193 191 0
-193 192 0
-194 23 1 0
-194 -23 -1 0
-195 193 0
-195 194 0
-196 1 0
-196 195 0
-197 -161 0
-197 196 0
197 0
