p cnf 393 1018
1 0
-46 -2 0
-46 -3 0
46 2 3 0
-47 -4 0
-47 46 0
47 4 -46 0
-48 -5 0
-48 47 0
48 5 -47 0
-49 -6 0
-49 48 0
49 6 -48 0
-50 11 -7 0
-50 -11 7 0
50 11 7 0
50 -11 -7 0
-51 -49 50 0
-51 49 -2 0
51 -49 -50 0
51 49 2 0
-52 -49 -7 0
-52 49 -3 0
52 -49 7 0
52 49 3 0
-53 -49 -8 0
-53 49 -4 0
53 -49 8 0
53 49 4 0
-54 -49 -9 0
-54 49 -5 0
54 -49 9 0
54 49 5 0
-55 -49 -10 0
-55 49 -6 0
55 -49 10 0
55 49 6 0
-56 -49 -12 0
-56 49 -2 0
56 -49 12 0
56 49 2 0
-57 -49 -13 0
-57 49 -3 0
57 -49 13 0
57 49 3 0
-58 -49 -14 0
-58 49 -4 0
58 -49 14 0
58 49 4 0
-59 -49 -15 0
-59 49 -5 0
59 -49 15 0
59 49 5 0
-60 -49 -16 0
-60 49 -6 0
60 -49 16 0
60 49 6 0
-61 -12 0
-61 -13 0
61 12 13 0
-62 -14 0
-62 61 0
62 14 -61 0
-63 -15 0
-63 62 0
63 15 -62 0
-64 -16 0
-64 63 0
64 16 -63 0
-65 50 12 0
-65 -50 -12 0
65 50 -12 0
65 -50 12 0
-66 13 -7 0
-66 -13 7 0
66 13 7 0
66 -13 -7 0
-67 65 0
-67 66 0
67 -65 -66 0
-68 14 -8 0
-68 -14 8 0
68 14 8 0
68 -14 -8 0
-69 67 0
-69 68 0
69 -67 -68 0
-70 15 -9 0
-70 -15 9 0
70 15 9 0
70 -15 -9 0
-71 69 0
-71 70 0
71 -69 -70 0
-72 16 -10 0
-72 -16 10 0
72 16 10 0
72 -16 -10 0
-73 71 0
-73 72 0
73 -71 -72 0
-74 -64 0
-74 73 0
74 64 -73 0
-75 -17 0
-75 49 0
75 17 -49 0
-76 -74 0
-76 75 0
76 74 -75 0
77 -17 -49 0
78 -74 -77 0
79 7 -50 0
80 8 -79 0
81 9 -80 0
82 10 -81 0
83 64 -82 0
-84 -78 0
-84 -83 0
-85 -18 0
-85 -19 0
-86 -20 0
-86 85 0
-87 -21 0
-87 86 0
-88 -22 0
-88 87 0
-89 -23 0
-89 88 0
-90 -7 0
-90 -8 0
-91 -9 0
-91 90 0
-92 -10 0
-92 91 0
-93 -11 0
-93 92 0
-94 64 0
-94 93 0
-95 89 0
-95 94 0
-96 18 -16 0
-96 -18 -15 0
96 18 16 0
96 -18 15 0
-97 16 -12 0
-97 -16 12 0
97 16 12 0
97 -16 -12 0
-98 18 -12 0
-98 -18 97 0
98 18 12 0
98 -18 -97 0
-99 18 -15 0
-99 -18 -14 0
99 18 15 0
99 -18 14 0
-100 -99 98 0
-100 99 -98 0
100 -99 -98 0
100 99 98 0
-101 100 -96 0
-101 -100 96 0
101 100 96 0
101 -100 -96 0
-102 19 98 0
-102 -19 101 0
102 19 -98 0
102 -19 -101 0
-103 18 -14 0
-103 -18 -13 0
103 18 14 0
103 -18 13 0
-104 19 96 0
-104 -19 103 0
104 19 -96 0
104 -19 -103 0
-105 20 104 0
-105 -20 102 0
105 20 -104 0
105 -20 -102 0
-106 -104 102 0
-106 104 -102 0
106 -104 -102 0
106 104 102 0
-107 18 -13 0
-107 -18 -12 0
107 18 13 0
107 -18 12 0
-108 19 99 0
-108 -19 107 0
108 19 -99 0
108 -19 -107 0
-109 20 108 0
-109 -20 106 0
109 20 -108 0
109 -20 -106 0
-110 -108 102 0
-110 108 -102 0
110 -108 -102 0
110 108 102 0
-111 110 -104 0
-111 -110 104 0
111 110 104 0
111 -110 -104 0
-112 19 103 0
-112 -19 98 0
112 19 -103 0
112 -19 -98 0
-113 20 112 0
-113 -20 111 0
113 20 -112 0
113 -20 -111 0
-114 98 -96 0
-114 -98 96 0
114 98 96 0
114 -98 -96 0
-115 19 107 0
-115 -19 114 0
115 19 -107 0
115 -19 -114 0
-116 -115 102 0
-116 115 -102 0
116 -115 -102 0
116 115 102 0
-117 116 -112 0
-117 -116 112 0
117 116 112 0
117 -116 -112 0
-118 117 -108 0
-118 -117 108 0
118 117 108 0
118 -117 -108 0
-119 118 -104 0
-119 -118 104 0
119 118 104 0
119 -118 -104 0
-120 20 102 0
-120 -20 119 0
120 20 -102 0
120 -20 -119 0
-121 -112 102 0
-121 112 -102 0
121 -112 -102 0
121 112 102 0
-122 121 -108 0
-122 -121 108 0
122 121 108 0
122 -121 -108 0
-123 122 -104 0
-123 -122 104 0
123 122 104 0
123 -122 -104 0
-124 20 115 0
-124 -20 123 0
124 20 -115 0
124 -20 -123 0
-125 -124 120 0
-125 124 -120 0
125 -124 -120 0
125 124 120 0
-126 125 -113 0
-126 -125 113 0
126 125 113 0
126 -125 -113 0
-127 126 -109 0
-127 -126 109 0
127 126 109 0
127 -126 -109 0
-128 127 -105 0
-128 -127 105 0
128 127 105 0
128 -127 -105 0
-129 21 105 0
-129 -21 128 0
129 21 -105 0
129 -21 -128 0
-130 125 -109 0
-130 -125 109 0
130 125 109 0
130 -125 -109 0
-131 21 120 0
-131 -21 130 0
131 21 -120 0
131 -21 -130 0
-132 124 -113 0
-132 -124 113 0
132 124 113 0
132 -124 -113 0
-133 132 -105 0
-133 -132 105 0
133 132 105 0
133 -132 -105 0
-134 21 124 0
-134 -21 133 0
134 21 -124 0
134 -21 -133 0
-135 -134 131 0
-135 134 -131 0
135 -134 -131 0
135 134 131 0
-136 135 -129 0
-136 -135 129 0
136 135 129 0
136 -135 -129 0
-137 22 129 0
-137 -22 136 0
137 22 -129 0
137 -22 -136 0
-138 21 113 0
-138 -21 127 0
138 21 -113 0
138 -21 -127 0
-139 -138 134 0
-139 138 -134 0
139 -138 -134 0
139 138 134 0
-140 22 134 0
-140 -22 139 0
140 22 -134 0
140 -22 -139 0
-141 132 -109 0
-141 -132 109 0
141 132 109 0
141 -132 -109 0
-142 141 -105 0
-142 -141 105 0
142 141 105 0
142 -141 -105 0
-143 21 109 0
-143 -21 142 0
143 21 -109 0
143 -21 -142 0
-144 -143 138 0
-144 143 -138 0
144 -143 -138 0
144 143 138 0
-145 22 138 0
-145 -22 144 0
145 22 -138 0
145 -22 -144 0
-146 -145 140 0
-146 145 -140 0
146 -145 -140 0
146 145 140 0
-147 146 -137 0
-147 -146 137 0
147 146 137 0
147 -146 -137 0
-148 23 137 0
-148 -23 147 0
148 23 -137 0
148 -23 -147 0
-149 -148 -11 0
-149 148 11 0
-150 143 -129 0
-150 -143 129 0
150 143 129 0
150 -143 -129 0
-151 22 143 0
-151 -22 150 0
151 22 -143 0
151 -22 -150 0
-152 22 131 0
-152 -22 135 0
152 22 -131 0
152 -22 -135 0
-153 152 -140 0
-153 -152 140 0
153 152 140 0
153 -152 -140 0
-154 153 -151 0
-154 -153 151 0
154 153 151 0
154 -153 -151 0
-155 23 151 0
-155 -23 154 0
155 23 -151 0
155 -23 -154 0
-156 -155 -10 0
-156 155 10 0
-157 145 -137 0
-157 -145 137 0
157 145 137 0
157 -145 -137 0
-158 23 145 0
-158 -23 157 0
158 23 -145 0
158 -23 -157 0
-159 -158 -9 0
-159 158 9 0
-160 -151 140 0
-160 151 -140 0
160 -151 -140 0
160 151 140 0
-161 23 140 0
-161 -23 160 0
161 23 -140 0
161 -23 -160 0
-162 -161 -8 0
-162 161 8 0
-163 152 -145 0
-163 -152 145 0
163 152 145 0
163 -152 -145 0
-164 23 152 0
-164 -23 163 0
164 23 -152 0
164 -23 -163 0
-165 -164 -7 0
-165 164 7 0
-166 18 -17 0
-166 -18 17 0
-167 13 -12 0
-167 -13 12 0
167 13 12 0
167 -13 -12 0
-168 167 14 0
-168 -167 -14 0
168 167 -14 0
168 -167 14 0
-169 15 -12 0
-169 -15 12 0
169 15 12 0
169 -15 -12 0
-170 168 0
-170 169 0
170 -168 -169 0
-171 16 -13 0
-171 -16 13 0
171 16 13 0
171 -16 -13 0
-172 170 0
-172 171 0
172 -170 -171 0
-173 -22 0
-173 -23 0
-174 -21 0
-174 173 0
-175 -20 0
-175 174 0
-176 -172 0
-176 175 0
-177 -172 -20 0
-177 172 20 0
-178 174 0
-178 177 0
-179 -19 0
-179 178 0
-180 -172 0
-180 179 0
181 176 180 0
-182 -172 -19 0
-182 172 19 0
-183 178 0
-183 182 0
-184 -18 0
-184 183 0
185 -181 184 0
-186 -64 0
-186 -185 0
-187 166 0
-187 186 0
-188 165 0
-188 187 0
-189 162 0
-189 188 0
-190 159 0
-190 189 0
-191 156 0
-191 190 0
-192 149 0
-192 191 0
193 95 192 0
-194 84 0
-194 -193 0
-195 1 0
-195 194 0
-196 -51 -29 0
-196 51 29 0
-197 1 0
-197 196 0
-198 -52 -30 0
-198 52 30 0
-199 197 0
-199 198 0
-200 -53 -31 0
-200 53 31 0
-201 199 0
-201 200 0
-202 -54 -32 0
-202 54 32 0
-203 201 0
-203 202 0
-204 -55 -33 0
-204 55 33 0
-205 203 0
-205 204 0
-206 -56 -34 0
-206 56 34 0
-207 205 0
-207 206 0
-208 -57 -35 0
-208 57 35 0
-209 207 0
-209 208 0
-210 -58 -36 0
-210 58 36 0
-211 209 0
-211 210 0
-212 -59 -37 0
-212 59 37 0
-213 211 0
-213 212 0
-214 -60 -38 0
-214 60 38 0
-215 213 0
-215 214 0
-216 76 -39 0
-216 -76 39 0
-217 215 0
-217 216 0
-218 -64 0
-218 65 0
218 64 -65 0
-219 66 0
-219 218 0
219 -66 -218 0
-220 68 0
-220 219 0
220 -68 -219 0
-221 70 0
-221 220 0
221 -70 -220 0
-222 72 0
-222 221 0
222 -72 -221 0
-223 49 0
-223 -64 0
223 -49 64 0
-224 -222 0
-224 223 0
224 222 -223 0
-225 -18 0
-225 224 0
225 18 -224 0
-226 225 -40 0
-226 -225 40 0
-227 217 0
-227 226 0
-228 -19 18 0
-228 19 -18 0
228 -19 -18 0
228 19 18 0
-229 224 0
-229 -228 0
229 -224 228 0
-230 229 -41 0
-230 -229 41 0
-231 227 0
-231 230 0
-232 18 0
-232 19 0
232 -18 -19 0
-233 232 -20 0
-233 -232 20 0
233 232 20 0
233 -232 -20 0
-234 224 0
-234 -233 0
234 -224 233 0
-235 234 -42 0
-235 -234 42 0
-236 231 0
-236 235 0
-237 20 0
-237 232 0
237 -20 -232 0
-238 237 -21 0
-238 -237 21 0
238 237 21 0
238 -237 -21 0
-239 224 0
-239 -238 0
239 -224 238 0
-240 239 -43 0
-240 -239 43 0
-241 236 0
-241 240 0
-242 21 0
-242 237 0
242 -21 -237 0
-243 242 -22 0
-243 -242 22 0
243 242 22 0
243 -242 -22 0
-244 224 0
-244 -243 0
244 -224 243 0
-245 244 -44 0
-245 -244 44 0
-246 241 0
-246 245 0
-247 22 0
-247 242 0
247 -22 -242 0
-248 247 -23 0
-248 -247 23 0
248 247 23 0
248 -247 -23 0
-249 224 0
-249 -248 0
249 -224 248 0
-250 249 -45 0
-250 -249 45 0
-251 246 0
-251 250 0
-252 -34 0
-252 -35 0
252 34 35 0
-253 -36 0
-253 252 0
253 36 -252 0
-254 -37 0
-254 253 0
254 37 -253 0
-255 -38 0
-255 254 0
255 38 -254 0
-256 33 -29 0
-256 -33 29 0
256 33 29 0
256 -33 -29 0
-257 256 34 0
-257 -256 -34 0
-258 35 -29 0
-258 -35 29 0
-259 257 0
-259 258 0
-260 36 -30 0
-260 -36 30 0
-261 259 0
-261 260 0
-262 37 -31 0
-262 -37 31 0
-263 261 0
-263 262 0
-264 38 -32 0
-264 -38 32 0
-265 263 0
-265 264 0
-266 -255 0
-266 265 0
-267 -24 0
-267 -25 0
-268 -26 0
-268 267 0
-269 -27 0
-269 268 0
-270 -28 0
-270 269 0
-271 39 0
-271 270 0
-272 266 0
-272 271 0
-273 -29 0
-273 256 0
-274 -30 0
-274 273 0
-275 -31 0
-275 274 0
-276 -32 0
-276 275 0
-277 -255 0
-277 276 0
278 272 277 0
279 40 41 0
280 42 -279 0
281 43 -280 0
282 44 -281 0
283 45 -282 0
284 29 30 0
285 31 -284 0
286 32 -285 0
287 33 -286 0
288 -255 -287 0
289 -283 -288 0
-290 40 -38 0
-290 -40 -37 0
290 40 38 0
290 -40 37 0
-291 38 -34 0
-291 -38 34 0
291 38 34 0
291 -38 -34 0
-292 40 -34 0
-292 -40 291 0
292 40 34 0
292 -40 -291 0
-293 40 -37 0
-293 -40 -36 0
293 40 37 0
293 -40 36 0
-294 -293 292 0
-294 293 -292 0
294 -293 -292 0
294 293 292 0
-295 294 -290 0
-295 -294 290 0
295 294 290 0
295 -294 -290 0
-296 41 292 0
-296 -41 295 0
296 41 -292 0
296 -41 -295 0
-297 40 -36 0
-297 -40 -35 0
297 40 36 0
297 -40 35 0
-298 41 290 0
-298 -41 297 0
298 41 -290 0
298 -41 -297 0
-299 42 298 0
-299 -42 296 0
299 42 -298 0
299 -42 -296 0
-300 -298 296 0
-300 298 -296 0
300 -298 -296 0
300 298 296 0
-301 40 -35 0
-301 -40 -34 0
301 40 35 0
301 -40 34 0
-302 41 293 0
-302 -41 301 0
302 41 -293 0
302 -41 -301 0
-303 42 302 0
-303 -42 300 0
303 42 -302 0
303 -42 -300 0
-304 -302 296 0
-304 302 -296 0
304 -302 -296 0
304 302 296 0
-305 304 -298 0
-305 -304 298 0
305 304 298 0
305 -304 -298 0
-306 41 297 0
-306 -41 292 0
306 41 -297 0
306 -41 -292 0
-307 42 306 0
-307 -42 305 0
307 42 -306 0
307 -42 -305 0
-308 292 -290 0
-308 -292 290 0
308 292 290 0
308 -292 -290 0
-309 41 301 0
-309 -41 308 0
309 41 -301 0
309 -41 -308 0
-310 -309 296 0
-310 309 -296 0
310 -309 -296 0
310 309 296 0
-311 310 -306 0
-311 -310 306 0
311 310 306 0
311 -310 -306 0
-312 311 -302 0
-312 -311 302 0
312 311 302 0
312 -311 -302 0
-313 312 -298 0
-313 -312 298 0
313 312 298 0
313 -312 -298 0
-314 42 296 0
-314 -42 313 0
314 42 -296 0
314 -42 -313 0
-315 -306 296 0
-315 306 -296 0
315 -306 -296 0
315 306 296 0
-316 315 -302 0
-316 -315 302 0
316 315 302 0
316 -315 -302 0
-317 316 -298 0
-317 -316 298 0
317 316 298 0
317 -316 -298 0
-318 42 309 0
-318 -42 317 0
318 42 -309 0
318 -42 -317 0
-319 -318 314 0
-319 318 -314 0
319 -318 -314 0
319 318 314 0
-320 319 -307 0
-320 -319 307 0
320 319 307 0
320 -319 -307 0
-321 320 -303 0
-321 -320 303 0
321 320 303 0
321 -320 -303 0
-322 321 -299 0
-322 -321 299 0
322 321 299 0
322 -321 -299 0
-323 43 299 0
-323 -43 322 0
323 43 -299 0
323 -43 -322 0
-324 319 -303 0
-324 -319 303 0
324 319 303 0
324 -319 -303 0
-325 43 314 0
-325 -43 324 0
325 43 -314 0
325 -43 -324 0
-326 318 -307 0
-326 -318 307 0
326 318 307 0
326 -318 -307 0
-327 326 -299 0
-327 -326 299 0
327 326 299 0
327 -326 -299 0
-328 43 318 0
-328 -43 327 0
328 43 -318 0
328 -43 -327 0
-329 -328 325 0
-329 328 -325 0
329 -328 -325 0
329 328 325 0
-330 329 -323 0
-330 -329 323 0
330 329 323 0
330 -329 -323 0
-331 44 323 0
-331 -44 330 0
331 44 -323 0
331 -44 -330 0
-332 43 307 0
-332 -43 321 0
332 43 -307 0
332 -43 -321 0
-333 -332 328 0
-333 332 -328 0
333 -332 -328 0
333 332 328 0
-334 44 328 0
-334 -44 333 0
334 44 -328 0
334 -44 -333 0
-335 326 -303 0
-335 -326 303 0
335 326 303 0
335 -326 -303 0
-336 335 -299 0
-336 -335 299 0
336 335 299 0
336 -335 -299 0
-337 43 303 0
-337 -43 336 0
337 43 -303 0
337 -43 -336 0
-338 -337 332 0
-338 337 -332 0
338 -337 -332 0
338 337 332 0
-339 44 332 0
-339 -44 338 0
339 44 -332 0
339 -44 -338 0
-340 -339 334 0
-340 339 -334 0
340 -339 -334 0
340 339 334 0
-341 340 -331 0
-341 -340 331 0
341 340 331 0
341 -340 -331 0
-342 45 331 0
-342 -45 341 0
342 45 -331 0
342 -45 -341 0
343 -342 33 0
343 342 -33 0
-344 337 -323 0
-344 -337 323 0
344 337 323 0
344 -337 -323 0
-345 44 337 0
-345 -44 344 0
345 44 -337 0
345 -44 -344 0
-346 44 325 0
-346 -44 329 0
346 44 -325 0
346 -44 -329 0
-347 346 -334 0
-347 -346 334 0
347 346 334 0
347 -346 -334 0
-348 347 -345 0
-348 -347 345 0
348 347 345 0
348 -347 -345 0
-349 45 345 0
-349 -45 348 0
349 45 -345 0
349 -45 -348 0
350 -349 32 0
350 349 -32 0
-351 339 -331 0
-351 -339 331 0
351 339 331 0
351 -339 -331 0
-352 45 339 0
-352 -45 351 0
352 45 -339 0
352 -45 -351 0
353 -352 31 0
353 352 -31 0
-354 -345 334 0
-354 345 -334 0
354 -345 -334 0
354 345 334 0
-355 45 334 0
-355 -45 354 0
355 45 -334 0
355 -45 -354 0
356 -355 30 0
356 355 -30 0
-357 346 -339 0
-357 -346 339 0
357 346 339 0
357 -346 -339 0
-358 45 346 0
-358 -45 357 0
358 45 -346 0
358 -45 -357 0
359 -358 29 0
359 358 -29 0
360 40 39 0
360 -40 -39 0
-361 35 -34 0
-361 -35 34 0
361 35 34 0
361 -35 -34 0
-362 361 36 0
-362 -361 -36 0
362 361 -36 0
362 -361 36 0
-363 37 -34 0
-363 -37 34 0
363 37 34 0
363 -37 -34 0
-364 362 0
-364 363 0
364 -362 -363 0
-365 38 -35 0
-365 -38 35 0
365 38 35 0
365 -38 -35 0
-366 364 0
-366 365 0
366 -364 -365 0
367 44 45 0
368 43 -367 0
369 42 -368 0
370 366 -369 0
371 -366 42 0
371 366 -42 0
372 -368 -371 0
373 41 -372 0
374 366 -373 0
-375 -370 0
-375 -374 0
376 -366 41 0
376 366 -41 0
377 -372 -376 0
378 40 -377 0
-379 375 0
-379 -378 0
380 255 379 0
381 -360 -380 0
382 -359 -381 0
383 -356 -382 0
384 -353 -383 0
385 -350 -384 0
386 -343 -385 0
-387 -289 0
-387 -386 0
388 -278 387 0
389 -1 -388 0
-390 1 0
-390 251 0
-391 1 0
-391 390 0
-392 195 0
-392 391 0
-393 -389 0
-393 392 0
393 0
