p cnf 167 283
1 0
-12 -2 0
-12 -3 0
-13 -4 0
-13 12 0
14 -10 6 0
14 10 -6 0
15 8 9 0
16 10 -15 0
17 -8 7 0
17 8 -7 0
-18 5 0
-18 9 0
-19 -17 0
-19 18 0
-20 -5 0
-20 -9 0
-21 -17 0
-21 20 0
22 19 21 0
-23 -16 0
-23 -22 0
-24 -14 0
-24 23 0
-25 11 0
-25 13 0
-26 24 0
-26 25 0
27 -16 26 0
-28 -5 0
-28 -6 0
-29 -7 0
-29 28 0
30 26 29 0
-31 -27 0
-31 -30 0
-32 -5 0
-32 -7 0
-33 -8 0
-33 32 0
-34 10 0
-34 33 0
-35 11 0
-35 34 0
-36 -5 0
-36 -7 0
-37 -8 0
-37 36 0
-38 9 0
-38 37 0
-39 11 0
-39 38 0
-40 -5 0
-40 -8 0
-41 9 0
-41 40 0
-42 10 0
-42 41 0
-43 11 0
-43 42 0
-44 -6 0
-44 -7 0
-45 -8 0
-45 44 0
-46 10 0
-46 45 0
-47 -11 0
-47 46 0
-48 -5 0
-48 -6 0
-49 -8 0
-49 48 0
-50 10 0
-50 49 0
-51 11 0
-51 50 0
-52 -5 0
-52 -7 0
-53 -8 0
-53 52 0
-54 9 0
-54 53 0
-55 10 0
-55 54 0
-56 5 0
-56 6 0
-57 8 0
-57 56 0
-58 -10 0
-58 57 0
-59 11 0
-59 58 0
-60 5 0
-60 7 0
-61 8 0
-61 60 0
-62 -9 0
-62 61 0
-63 -10 0
-63 62 0
-64 -6 0
-64 8 0
-65 -9 0
-65 64 0
-66 -10 0
-66 65 0
-67 11 0
-67 66 0
-68 6 0
-68 7 0
-69 8 0
-69 68 0
-70 -9 0
-70 69 0
-71 11 0
-71 70 0
-72 5 0
-72 6 0
-73 8 0
-73 72 0
-74 -9 0
-74 73 0
-75 -11 0
-75 74 0
-76 5 0
-76 7 0
-77 8 0
-77 76 0
-78 -9 0
-78 77 0
-79 11 0
-79 78 0
-80 -6 0
-80 -7 0
-81 -8 0
-81 80 0
-82 9 0
-82 81 0
-83 11 0
-83 82 0
-84 -5 0
-84 -6 0
-85 -8 0
-85 84 0
-86 9 0
-86 85 0
-87 -11 0
-87 86 0
-88 5 0
-88 7 0
-89 8 0
-89 88 0
-90 -10 0
-90 89 0
-91 11 0
-91 90 0
-92 6 0
-92 -8 0
-93 9 0
-93 92 0
-94 10 0
-94 93 0
-95 11 0
-95 94 0
-96 6 0
-96 8 0
-97 -9 0
-97 96 0
-98 -10 0
-98 97 0
-99 -11 0
-99 98 0
-100 6 0
-100 7 0
-101 8 0
-101 100 0
-102 -10 0
-102 101 0
-103 -11 0
-103 102 0
-104 -6 0
-104 -8 0
-105 9 0
-105 104 0
-106 10 0
-106 105 0
-107 -11 0
-107 106 0
-108 5 0
-108 6 0
-109 7 0
-109 108 0
-110 11 0
-110 109 0
-111 5 0
-111 6 0
-112 7 0
-112 111 0
-113 -9 0
-113 112 0
-114 5 0
-114 6 0
-115 7 0
-115 114 0
-116 -8 0
-116 115 0
-117 -5 0
-117 -6 0
-118 -7 0
-118 117 0
-119 8 0
-119 118 0
-120 -5 0
-120 -6 0
-121 -7 0
-121 120 0
-122 10 0
-122 121 0
-123 -5 0
-123 -6 0
-124 -7 0
-124 123 0
-125 9 0
-125 124 0
126 122 125 0
127 119 -126 0
128 116 -127 0
129 113 -128 0
130 110 -129 0
131 107 -130 0
132 103 -131 0
133 99 -132 0
134 95 -133 0
135 91 -134 0
136 87 -135 0
137 83 -136 0
138 79 -137 0
139 75 -138 0
140 71 -139 0
141 67 -140 0
142 63 -141 0
143 59 -142 0
144 55 -143 0
145 51 -144 0
146 47 -145 0
147 43 -146 0
148 39 -147 0
149 35 -148 0
150 31 -149 0
151 -1 -150 0
-152 5 1 0
-152 -5 -1 0
-153 1 0
-153 152 0
-154 6 1 0
-154 -6 -1 0
-155 153 0
-155 154 0
-156 7 1 0
-156 -7 -1 0
-157 155 0
-157 156 0
-158 8 1 0
-158 -8 -1 0
-159 157 0
-159 158 0
-160 9 1 0
-160 -9 -1 0
-161 159 0
-161 160 0
-162 10 1 0
-162 -10 -1 0
-163 161 0
-163 162 0
-164 11 1 0
-164 -11 -1 0
-165 163 0
-165 164 0
-166 1 0
-166 165 0
-167 -151 0
-167 166 0
167 0
