p cnf 514 725
1 0
-32 -2 0
-32 -3 0
32 2 3 0
-33 -4 0
-33 32 0
33 4 -32 0
-34 -33 7 0
-34 33 2 0
34 -33 -7 0
34 33 -2 0
-35 -33 5 0
-35 33 3 0
35 -33 -5 0
35 33 -3 0
-36 -4 0
-36 -6 0
36 4 6 0
-37 -4 0
-37 -33 0
37 4 33 0
-38 -36 0
-38 -37 0
38 36 37 0
-39 -33 8 0
-39 33 2 0
39 -33 -8 0
39 33 -2 0
-40 -33 9 0
-40 33 3 0
40 -33 -9 0
40 33 -3 0
-41 -4 0
-41 -10 0
41 4 10 0
-42 -4 0
-42 -33 0
42 4 33 0
-43 -41 0
-43 -42 0
43 41 42 0
-44 -10 -6 0
-44 10 6 0
44 -10 6 0
44 10 -6 0
-45 -8 0
-45 -9 0
45 8 9 0
-46 -10 0
-46 45 0
46 10 -45 0
-47 -8 -7 0
-47 8 7 0
47 -8 7 0
47 8 -7 0
-48 5 0
-48 9 0
48 -5 -9 0
-49 -47 0
-49 48 0
49 47 -48 0
-50 -5 0
-50 -9 0
50 5 9 0
-51 -47 0
-51 50 0
51 47 -50 0
-52 -49 0
-52 -51 0
52 49 51 0
-53 -46 0
-53 -52 0
53 46 52 0
-54 -44 0
-54 53 0
54 44 -53 0
-55 -11 0
-55 33 0
55 11 -33 0
-56 -54 0
-56 55 0
56 54 -55 0
57 -11 -33 0
58 -54 -57 0
-59 46 0
-59 -58 0
60 5 6 0
61 7 -60 0
-62 -58 0
-62 -61 0
63 59 62 0
64 5 7 0
65 8 -64 0
66 -10 -65 0
67 -11 -66 0
68 5 7 0
69 8 -68 0
70 -9 -69 0
71 -11 -70 0
72 5 8 0
73 -9 -72 0
74 -10 -73 0
75 -11 -74 0
76 6 7 0
77 8 -76 0
78 -10 -77 0
79 11 -78 0
80 5 6 0
81 8 -80 0
82 -10 -81 0
83 -11 -82 0
84 5 7 0
85 8 -84 0
86 -9 -85 0
87 -10 -86 0
88 -5 -6 0
89 -8 -88 0
90 10 -89 0
91 -11 -90 0
92 -5 -7 0
93 -8 -92 0
94 9 -93 0
95 10 -94 0
96 6 -8 0
97 9 -96 0
98 10 -97 0
99 -11 -98 0
100 -6 -7 0
101 -8 -100 0
102 9 -101 0
103 -11 -102 0
104 -5 -6 0
105 -8 -104 0
106 9 -105 0
107 11 -106 0
108 -5 -7 0
109 -8 -108 0
110 9 -109 0
111 -11 -110 0
112 6 7 0
113 8 -112 0
114 -9 -113 0
115 -11 -114 0
116 5 6 0
117 8 -116 0
118 -9 -117 0
119 11 -118 0
120 -5 -7 0
121 -8 -120 0
122 10 -121 0
123 -11 -122 0
124 -6 8 0
125 -9 -124 0
126 -10 -125 0
127 -11 -126 0
128 -6 -8 0
129 9 -128 0
130 10 -129 0
131 11 -130 0
132 -6 -7 0
133 -8 -132 0
134 10 -133 0
135 11 -134 0
136 6 8 0
137 -9 -136 0
138 -10 -137 0
139 11 -138 0
140 -5 -6 0
141 -7 -140 0
142 -11 -141 0
143 -5 -6 0
144 -7 -143 0
145 9 -144 0
146 -5 -6 0
147 -7 -146 0
148 8 -147 0
149 5 6 0
150 7 -149 0
151 -8 -150 0
152 5 6 0
153 7 -152 0
154 -10 -153 0
155 5 6 0
156 7 -155 0
157 -9 -156 0
-158 -154 0
-158 -157 0
-159 -151 0
-159 158 0
-160 -148 0
-160 159 0
-161 -145 0
-161 160 0
-162 -142 0
-162 161 0
-163 -139 0
-163 162 0
-164 -135 0
-164 163 0
-165 -131 0
-165 164 0
-166 -127 0
-166 165 0
-167 -123 0
-167 166 0
-168 -119 0
-168 167 0
-169 -115 0
-169 168 0
-170 -111 0
-170 169 0
-171 -107 0
-171 170 0
-172 -103 0
-172 171 0
-173 -99 0
-173 172 0
-174 -95 0
-174 173 0
-175 -91 0
-175 174 0
-176 -87 0
-176 175 0
-177 -83 0
-177 176 0
-178 -79 0
-178 177 0
-179 -75 0
-179 178 0
-180 -71 0
-180 179 0
-181 -67 0
-181 180 0
-182 -63 0
-182 181 0
-183 1 0
-183 182 0
-184 34 -15 0
-184 -34 15 0
-185 1 0
-185 184 0
-186 35 -16 0
-186 -35 16 0
-187 185 0
-187 186 0
-188 38 -17 0
-188 -38 17 0
-189 187 0
-189 188 0
-190 39 -18 0
-190 -39 18 0
-191 189 0
-191 190 0
-192 40 -19 0
-192 -40 19 0
-193 191 0
-193 192 0
-194 43 -20 0
-194 -43 20 0
-195 193 0
-195 194 0
-196 56 -21 0
-196 -56 21 0
-197 195 0
-197 196 0
-198 -18 0
-198 -19 0
198 18 19 0
-199 -20 0
-199 198 0
199 20 -198 0
-200 -20 -16 0
-200 20 16 0
200 -20 16 0
200 20 -16 0
-201 -18 -17 0
-201 18 17 0
201 -18 17 0
201 18 -17 0
-202 15 0
-202 19 0
202 -15 -19 0
-203 -201 0
-203 202 0
203 201 -202 0
-204 -15 0
-204 -19 0
204 15 19 0
-205 -201 0
-205 204 0
205 201 -204 0
-206 -203 0
-206 -205 0
206 203 205 0
-207 -199 0
-207 -206 0
207 199 206 0
-208 -200 0
-208 207 0
208 200 -207 0
-209 -12 0
-209 -13 0
209 12 13 0
-210 -14 0
-210 209 0
210 14 -209 0
211 -21 -210 0
212 -208 -211 0
-213 199 0
-213 -212 0
214 15 16 0
215 17 -214 0
-216 -212 0
-216 -215 0
217 213 216 0
218 15 17 0
219 18 -218 0
220 -20 -219 0
221 -21 -220 0
222 15 17 0
223 18 -222 0
224 -19 -223 0
225 -21 -224 0
226 15 18 0
227 -19 -226 0
228 -20 -227 0
229 -21 -228 0
230 16 17 0
231 18 -230 0
232 -20 -231 0
233 21 -232 0
234 15 16 0
235 18 -234 0
236 -20 -235 0
237 -21 -236 0
238 15 17 0
239 18 -238 0
240 -19 -239 0
241 -20 -240 0
242 -15 -16 0
243 -18 -242 0
244 20 -243 0
245 -21 -244 0
246 -15 -17 0
247 -18 -246 0
248 19 -247 0
249 20 -248 0
250 16 -18 0
251 19 -250 0
252 20 -251 0
253 -21 -252 0
254 -16 -17 0
255 -18 -254 0
256 19 -255 0
257 -21 -256 0
258 -15 -16 0
259 -18 -258 0
260 19 -259 0
261 21 -260 0
262 -15 -17 0
263 -18 -262 0
264 19 -263 0
265 -21 -264 0
266 16 17 0
267 18 -266 0
268 -19 -267 0
269 -21 -268 0
270 15 16 0
271 18 -270 0
272 -19 -271 0
273 21 -272 0
274 -15 -17 0
275 -18 -274 0
276 20 -275 0
277 -21 -276 0
278 -16 18 0
279 -19 -278 0
280 -20 -279 0
281 -21 -280 0
282 -16 -18 0
283 19 -282 0
284 20 -283 0
285 21 -284 0
286 -16 -17 0
287 -18 -286 0
288 20 -287 0
289 21 -288 0
290 16 18 0
291 -19 -290 0
292 -20 -291 0
293 21 -292 0
294 -15 -16 0
295 -17 -294 0
296 -21 -295 0
297 -15 -16 0
298 -17 -297 0
299 19 -298 0
300 -15 -16 0
301 -17 -300 0
302 18 -301 0
303 15 16 0
304 17 -303 0
305 -18 -304 0
306 15 16 0
307 17 -306 0
308 -20 -307 0
309 15 16 0
310 17 -309 0
311 -19 -310 0
-312 -308 0
-312 -311 0
-313 -305 0
-313 312 0
-314 -302 0
-314 313 0
-315 -299 0
-315 314 0
-316 -296 0
-316 315 0
-317 -293 0
-317 316 0
-318 -289 0
-318 317 0
-319 -285 0
-319 318 0
-320 -281 0
-320 319 0
-321 -277 0
-321 320 0
-322 -273 0
-322 321 0
-323 -269 0
-323 322 0
-324 -265 0
-324 323 0
-325 -261 0
-325 324 0
-326 -257 0
-326 325 0
-327 -253 0
-327 326 0
-328 -249 0
-328 327 0
-329 -245 0
-329 328 0
-330 -241 0
-330 329 0
-331 -237 0
-331 330 0
-332 -233 0
-332 331 0
-333 -229 0
-333 332 0
-334 -225 0
-334 333 0
-335 -221 0
-335 334 0
-336 -217 0
-336 335 0
-337 1 0
-337 336 0
-338 -28 0
-338 -29 0
-339 -30 0
-339 338 0
-340 -30 -26 0
-340 30 26 0
-341 -28 -27 0
-341 28 27 0
342 -25 -29 0
343 341 -342 0
344 25 29 0
345 341 -344 0
-346 -343 0
-346 -345 0
347 339 346 0
348 340 -347 0
349 22 23 0
350 24 -349 0
351 -31 -350 0
352 -348 -351 0
-353 339 0
-353 -352 0
354 25 26 0
355 27 -354 0
-356 -352 0
-356 -355 0
357 353 356 0
358 25 27 0
359 28 -358 0
360 -30 -359 0
361 -31 -360 0
362 25 27 0
363 28 -362 0
364 -29 -363 0
365 -31 -364 0
366 25 28 0
367 -29 -366 0
368 -30 -367 0
369 -31 -368 0
370 26 27 0
371 28 -370 0
372 -30 -371 0
373 31 -372 0
374 25 26 0
375 28 -374 0
376 -30 -375 0
377 -31 -376 0
378 25 27 0
379 28 -378 0
380 -29 -379 0
381 -30 -380 0
382 -25 -26 0
383 -28 -382 0
384 30 -383 0
385 -31 -384 0
386 -25 -27 0
387 -28 -386 0
388 29 -387 0
389 30 -388 0
390 26 -28 0
391 29 -390 0
392 30 -391 0
393 -31 -392 0
394 -26 -27 0
395 -28 -394 0
396 29 -395 0
397 -31 -396 0
398 -25 -26 0
399 -28 -398 0
400 29 -399 0
401 31 -400 0
402 -25 -27 0
403 -28 -402 0
404 29 -403 0
405 -31 -404 0
406 26 27 0
407 28 -406 0
408 -29 -407 0
409 -31 -408 0
410 25 26 0
411 28 -410 0
412 -29 -411 0
413 31 -412 0
414 -25 -27 0
415 -28 -414 0
416 30 -415 0
417 -31 -416 0
418 -26 28 0
419 -29 -418 0
420 -30 -419 0
421 -31 -420 0
422 -26 -28 0
423 29 -422 0
424 30 -423 0
425 31 -424 0
426 -26 -27 0
427 -28 -426 0
428 30 -427 0
429 31 -428 0
430 26 28 0
431 -29 -430 0
432 -30 -431 0
433 31 -432 0
434 -25 -26 0
435 -27 -434 0
436 -31 -435 0
437 -25 -26 0
438 -27 -437 0
439 29 -438 0
440 -25 -26 0
441 -27 -440 0
442 28 -441 0
443 25 26 0
444 27 -443 0
445 -28 -444 0
446 25 26 0
447 27 -446 0
448 -30 -447 0
449 25 26 0
450 27 -449 0
451 -29 -450 0
-452 -448 0
-452 -451 0
-453 -445 0
-453 452 0
-454 -442 0
-454 453 0
-455 -439 0
-455 454 0
-456 -436 0
-456 455 0
-457 -433 0
-457 456 0
-458 -429 0
-458 457 0
-459 -425 0
-459 458 0
-460 -421 0
-460 459 0
-461 -417 0
-461 460 0
-462 -413 0
-462 461 0
-463 -409 0
-463 462 0
-464 -405 0
-464 463 0
-465 -401 0
-465 464 0
-466 -397 0
-466 465 0
-467 -393 0
-467 466 0
-468 -389 0
-468 467 0
-469 -385 0
-469 468 0
-470 -381 0
-470 469 0
-471 -377 0
-471 470 0
-472 -373 0
-472 471 0
-473 -369 0
-473 472 0
-474 -365 0
-474 473 0
-475 -361 0
-475 474 0
-476 -357 0
-476 475 0
-477 1 0
-477 476 0
-478 -210 17 0
-478 210 12 0
478 -210 -17 0
478 210 -12 0
-479 478 -25 0
-479 -478 25 0
-480 1 0
-480 479 0
-481 -210 15 0
-481 210 13 0
481 -210 -15 0
481 210 -13 0
-482 481 -26 0
-482 -481 26 0
-483 480 0
-483 482 0
-484 -14 0
-484 -16 0
484 14 16 0
-485 -14 0
-485 -210 0
485 14 210 0
-486 -484 0
-486 -485 0
486 484 485 0
-487 486 -27 0
-487 -486 27 0
-488 483 0
-488 487 0
-489 -210 18 0
-489 210 12 0
489 -210 -18 0
489 210 -12 0
-490 489 -28 0
-490 -489 28 0
-491 488 0
-491 490 0
-492 -210 19 0
-492 210 13 0
492 -210 -19 0
492 210 -13 0
-493 492 -29 0
-493 -492 29 0
-494 491 0
-494 493 0
-495 -14 0
-495 -20 0
495 14 20 0
-496 -14 0
-496 -210 0
496 14 210 0
-497 -495 0
-497 -496 0
497 495 496 0
-498 497 -30 0
-498 -497 30 0
-499 494 0
-499 498 0
-500 -21 0
-500 210 0
500 21 -210 0
-501 -208 0
-501 500 0
501 208 -500 0
-502 501 -31 0
-502 -501 31 0
-503 499 0
-503 502 0
-504 1 0
-504 1 0
-505 183 0
-505 504 0
-506 1 0
-506 505 0
-507 337 0
-507 506 0
-508 1 0
-508 507 0
-509 477 0
-509 508 0
-510 197 0
-510 509 0
-511 503 0
-511 510 0
-512 1 0
-512 511 0
-513 1 0
-513 512 0
-514 -1 0
-514 513 0
514 0
