p cnf 39 56
1 0
-9 2 1 0
-9 -2 -1 0
-10 1 0
-10 9 0
-11 3 1 0
-11 -3 -1 0
-12 10 0
-12 11 0
-13 4 1 0
-13 -4 -1 0
-14 12 0
-14 13 0
-15 5 1 0
-15 -5 -1 0
-16 14 0
-16 15 0
-17 6 1 0
-17 -6 -1 0
-18 16 0
-18 17 0
-19 7 1 0
-19 -7 -1 0
-20 18 0
-20 19 0
-21 8 1 0
-21 -8 -1 0
-22 20 0
-22 21 0
-23 1 0
-23 22 0
24 2 -1 0
24 -2 1 0
25 -1 -24 0
26 3 -1 0
26 -3 1 0
27 -25 -26 0
28 4 -1 0
28 -4 1 0
29 -27 -28 0
30 5 -1 0
30 -5 1 0
31 -29 -30 0
32 6 -1 0
32 -6 1 0
33 -31 -32 0
34 7 -1 0
34 -7 1 0
35 -33 -34 0
36 8 -1 0
36 -8 1 0
37 -35 -36 0
38 -1 -37 0
-39 23 0
-39 -38 0
39 0
