p cnf 410 1006
1 0
-53 -2 0
-53 -3 0
53 2 3 0
-54 -4 0
-54 -5 0
54 4 5 0
-55 53 0
-55 54 0
55 -53 -54 0
-56 -9 8 0
-56 9 -8 0
56 -9 -8 0
56 9 8 0
-57 -55 56 0
-57 55 -2 0
57 -55 -56 0
57 55 2 0
-58 -55 -6 0
-58 55 -3 0
58 -55 6 0
58 55 3 0
-59 -55 -7 0
-59 55 -4 0
59 -55 7 0
59 55 4 0
-60 -55 -8 0
-60 55 -5 0
60 -55 8 0
60 55 5 0
-61 -55 -10 0
-61 55 -2 0
61 -55 10 0
61 55 2 0
-62 -55 -11 0
-62 55 -3 0
62 -55 11 0
62 55 3 0
-63 -55 -12 0
-63 55 -4 0
63 -55 12 0
63 55 4 0
-64 -55 -13 0
-64 55 -5 0
64 -55 13 0
64 55 5 0
-65 -10 0
-65 -11 0
65 10 11 0
-66 -12 0
-66 -13 0
66 12 13 0
-67 65 0
-67 66 0
67 -65 -66 0
-68 56 -10 0
-68 -56 10 0
68 56 10 0
68 -56 -10 0
-69 -11 -6 0
-69 11 6 0
69 -11 6 0
69 11 -6 0
-70 -68 0
-70 -69 0
70 68 69 0
-71 -12 -7 0
-71 12 7 0
71 -12 7 0
71 12 -7 0
-72 -13 -8 0
-72 13 8 0
72 -13 8 0
72 13 -8 0
-73 -71 0
-73 -72 0
73 71 72 0
-74 70 0
-74 73 0
74 -70 -73 0
-75 -67 0
-75 74 0
75 67 -74 0
-76 55 0
-76 -75 0
76 -55 75 0
-77 -14 0
-77 76 0
77 14 -76 0
78 -14 -75 0
79 -55 -78 0
80 6 -56 0
81 7 8 0
82 -80 -81 0
83 67 -82 0
-84 -79 0
-84 -83 0
-85 -15 0
-85 -16 0
-86 -17 0
-86 85 0
-87 -18 0
-87 86 0
-88 -12 0
-88 65 0
88 12 -65 0
-89 -13 0
-89 88 0
89 13 -88 0
-90 -6 0
-90 -7 0
-91 -8 0
-91 90 0
-92 -9 0
-92 91 0
-93 89 0
-93 92 0
-94 87 0
-94 93 0
-95 15 -11 0
-95 -15 -10 0
95 15 11 0
95 -15 10 0
-96 15 -12 0
-96 -15 -11 0
96 15 12 0
96 -15 11 0
-97 -96 95 0
-97 96 -95 0
97 -96 -95 0
97 96 95 0
-98 13 -12 0
-98 -13 12 0
98 13 12 0
98 -13 -12 0
-99 15 -10 0
-99 -15 98 0
99 15 10 0
99 -15 -98 0
-100 16 99 0
-100 -16 97 0
100 16 -99 0
100 -16 -97 0
-101 15 -13 0
-101 -15 -12 0
101 15 13 0
101 -15 12 0
-102 -101 96 0
-102 101 -96 0
102 -101 -96 0
102 101 96 0
-103 16 95 0
-103 -16 102 0
103 16 -95 0
103 -16 -102 0
-104 -103 100 0
-104 103 -100 0
104 -103 -100 0
104 103 100 0
-105 17 103 0
-105 -17 104 0
105 17 -103 0
105 -17 -104 0
-106 16 96 0
-106 -16 99 0
106 16 -96 0
106 -16 -99 0
-107 16 101 0
-107 -16 95 0
107 16 -101 0
107 -16 -95 0
-108 -107 106 0
-108 107 -106 0
108 -107 -106 0
108 107 106 0
-109 17 107 0
-109 -17 108 0
109 17 -107 0
109 -17 -108 0
-110 -109 105 0
-110 109 -105 0
110 -109 -105 0
110 109 105 0
-111 18 109 0
-111 -18 110 0
111 18 -109 0
111 -18 -110 0
-112 -111 -9 0
-112 111 9 0
-113 -106 100 0
-113 106 -100 0
113 -106 -100 0
113 106 100 0
-114 113 -107 0
-114 -113 107 0
114 113 107 0
114 -113 -107 0
-115 17 100 0
-115 -17 114 0
115 17 -100 0
115 -17 -114 0
-116 -106 103 0
-116 106 -103 0
116 -106 -103 0
116 106 103 0
-117 17 106 0
-117 -17 116 0
117 17 -106 0
117 -17 -116 0
-118 -117 115 0
-118 117 -115 0
118 -117 -115 0
118 117 115 0
-119 18 117 0
-119 -18 118 0
119 18 -117 0
119 -18 -118 0
-120 -119 -8 0
-120 119 8 0
-121 -117 105 0
-121 117 -105 0
121 -117 -105 0
121 117 105 0
-122 121 -109 0
-122 -121 109 0
122 121 109 0
122 -121 -109 0
-123 18 105 0
-123 -18 122 0
123 18 -105 0
123 -18 -122 0
-124 -123 -7 0
-124 123 7 0
-125 115 -105 0
-125 -115 105 0
125 115 105 0
125 -115 -105 0
-126 125 -117 0
-126 -125 117 0
126 125 117 0
126 -125 -117 0
-127 18 115 0
-127 -18 126 0
127 18 -115 0
127 -18 -126 0
-128 -127 -6 0
-128 127 6 0
-129 15 -14 0
-129 -15 14 0
-130 15 0
-130 16 0
130 -15 -16 0
-131 17 0
-131 130 0
131 -17 -130 0
132 -18 -131 0
-133 -89 0
-133 -132 0
-134 129 0
-134 133 0
-135 128 0
-135 134 0
-136 124 0
-136 135 0
-137 120 0
-137 136 0
-138 112 0
-138 137 0
139 94 138 0
-140 84 0
-140 -139 0
-141 1 0
-141 140 0
-142 -57 -23 0
-142 57 23 0
-143 1 0
-143 142 0
-144 -58 -24 0
-144 58 24 0
-145 143 0
-145 144 0
-146 -59 -25 0
-146 59 25 0
-147 145 0
-147 146 0
-148 -60 -26 0
-148 60 26 0
-149 147 0
-149 148 0
-150 -61 -27 0
-150 61 27 0
-151 149 0
-151 150 0
-152 -62 -28 0
-152 62 28 0
-153 151 0
-153 152 0
-154 -63 -29 0
-154 63 29 0
-155 153 0
-155 154 0
-156 -64 -30 0
-156 64 30 0
-157 155 0
-157 156 0
-158 77 -31 0
-158 -77 31 0
-159 157 0
-159 158 0
-160 13 -8 0
-160 -13 8 0
160 13 8 0
160 -13 -8 0
-161 12 -7 0
-161 -12 7 0
161 12 7 0
161 -12 -7 0
-162 11 -6 0
-162 -11 6 0
162 11 6 0
162 -11 -6 0
-163 56 10 0
-163 -56 -10 0
163 56 -10 0
163 -56 10 0
-164 -89 0
-164 163 0
164 89 -163 0
-165 162 0
-165 164 0
165 -162 -164 0
-166 161 0
-166 165 0
166 -161 -165 0
-167 160 0
-167 166 0
167 -160 -166 0
-168 -4 0
-168 53 0
168 4 -53 0
-169 -5 0
-169 168 0
169 5 -168 0
-170 -89 0
-170 169 0
170 89 -169 0
-171 -167 0
-171 170 0
171 167 -170 0
-172 -15 0
-172 171 0
172 15 -171 0
-173 172 -32 0
-173 -172 32 0
-174 159 0
-174 173 0
-175 -16 15 0
-175 16 -15 0
175 -16 -15 0
175 16 15 0
-176 171 0
-176 -175 0
176 -171 175 0
-177 176 -33 0
-177 -176 33 0
-178 174 0
-178 177 0
-179 130 -17 0
-179 -130 17 0
179 130 17 0
179 -130 -17 0
-180 171 0
-180 -179 0
180 -171 179 0
-181 180 -34 0
-181 -180 34 0
-182 178 0
-182 181 0
-183 131 -18 0
-183 -131 18 0
183 131 18 0
183 -131 -18 0
-184 171 0
-184 -183 0
184 -171 183 0
-185 184 -35 0
-185 -184 35 0
-186 182 0
-186 185 0
-187 -19 0
-187 -20 0
187 19 20 0
-188 -21 0
-188 -22 0
188 21 22 0
-189 187 0
-189 188 0
189 -187 -188 0
-190 -27 0
-190 -28 0
190 27 28 0
-191 -29 0
-191 -30 0
191 29 30 0
-192 190 0
-192 191 0
192 -190 -191 0
-193 -26 25 0
-193 26 -25 0
193 -26 -25 0
193 26 25 0
-194 193 -27 0
-194 -193 27 0
194 193 27 0
194 -193 -27 0
-195 -28 -23 0
-195 28 23 0
195 -28 23 0
195 28 -23 0
-196 -194 0
-196 -195 0
196 194 195 0
-197 -29 -24 0
-197 29 24 0
197 -29 24 0
197 29 -24 0
-198 -30 -25 0
-198 30 25 0
198 -30 25 0
198 30 -25 0
-199 -197 0
-199 -198 0
199 197 198 0
-200 196 0
-200 199 0
200 -196 -199 0
-201 -192 0
-201 200 0
201 192 -200 0
202 -31 -201 0
203 -189 -202 0
204 23 -193 0
205 24 25 0
206 -204 -205 0
207 192 -206 0
-208 -203 0
-208 -207 0
-209 -32 0
-209 -33 0
-210 -34 0
-210 209 0
-211 -35 0
-211 210 0
-212 -29 0
-212 190 0
212 29 -190 0
-213 -30 0
-213 212 0
213 30 -212 0
-214 -23 0
-214 -24 0
-215 -25 0
-215 214 0
-216 -26 0
-216 215 0
-217 213 0
-217 216 0
-218 211 0
-218 217 0
-219 32 -28 0
-219 -32 -27 0
219 32 28 0
219 -32 27 0
-220 32 -29 0
-220 -32 -28 0
220 32 29 0
220 -32 28 0
-221 -220 219 0
-221 220 -219 0
221 -220 -219 0
221 220 219 0
-222 30 -29 0
-222 -30 29 0
222 30 29 0
222 -30 -29 0
-223 32 -27 0
-223 -32 222 0
223 32 27 0
223 -32 -222 0
-224 33 223 0
-224 -33 221 0
224 33 -223 0
224 -33 -221 0
-225 32 -30 0
-225 -32 -29 0
225 32 30 0
225 -32 29 0
-226 -225 220 0
-226 225 -220 0
226 -225 -220 0
226 225 220 0
-227 33 219 0
-227 -33 226 0
227 33 -219 0
227 -33 -226 0
-228 -227 224 0
-228 227 -224 0
228 -227 -224 0
228 227 224 0
-229 34 227 0
-229 -34 228 0
229 34 -227 0
229 -34 -228 0
-230 33 220 0
-230 -33 223 0
230 33 -220 0
230 -33 -223 0
-231 33 225 0
-231 -33 219 0
231 33 -225 0
231 -33 -219 0
-232 -231 230 0
-232 231 -230 0
232 -231 -230 0
232 231 230 0
-233 34 231 0
-233 -34 232 0
233 34 -231 0
233 -34 -232 0
-234 -233 229 0
-234 233 -229 0
234 -233 -229 0
234 233 229 0
-235 35 233 0
-235 -35 234 0
235 35 -233 0
235 -35 -234 0
-236 -235 -26 0
-236 235 26 0
-237 -230 224 0
-237 230 -224 0
237 -230 -224 0
237 230 224 0
-238 237 -231 0
-238 -237 231 0
238 237 231 0
238 -237 -231 0
-239 34 224 0
-239 -34 238 0
239 34 -224 0
239 -34 -238 0
-240 -230 227 0
-240 230 -227 0
240 -230 -227 0
240 230 227 0
-241 34 230 0
-241 -34 240 0
241 34 -230 0
241 -34 -240 0
-242 -241 239 0
-242 241 -239 0
242 -241 -239 0
242 241 239 0
-243 35 241 0
-243 -35 242 0
243 35 -241 0
243 -35 -242 0
-244 -243 -25 0
-244 243 25 0
-245 -241 229 0
-245 241 -229 0
245 -241 -229 0
245 241 229 0
-246 245 -233 0
-246 -245 233 0
246 245 233 0
246 -245 -233 0
-247 35 229 0
-247 -35 246 0
247 35 -229 0
247 -35 -246 0
-248 -247 -24 0
-248 247 24 0
-249 239 -229 0
-249 -239 229 0
249 239 229 0
249 -239 -229 0
-250 249 -241 0
-250 -249 241 0
250 249 241 0
250 -249 -241 0
-251 35 239 0
-251 -35 250 0
251 35 -239 0
251 -35 -250 0
-252 -251 -23 0
-252 251 23 0
-253 32 -31 0
-253 -32 31 0
-254 32 0
-254 33 0
254 -32 -33 0
-255 34 0
-255 254 0
255 -34 -254 0
256 -35 -255 0
-257 -213 0
-257 -256 0
-258 253 0
-258 257 0
-259 252 0
-259 258 0
-260 248 0
-260 259 0
-261 244 0
-261 260 0
-262 236 0
-262 261 0
263 218 262 0
-264 208 0
-264 -263 0
-265 1 0
-265 264 0
266 36 37 0
267 38 39 0
268 -266 -267 0
-269 -44 0
-269 -45 0
269 44 45 0
-270 -46 0
-270 -47 0
-271 269 0
-271 270 0
-272 -43 42 0
-272 43 -42 0
272 -43 -42 0
272 43 42 0
-273 272 -44 0
-273 -272 44 0
-274 -45 -40 0
-274 45 40 0
275 273 274 0
-276 -46 -41 0
-276 46 41 0
-277 -47 -42 0
-277 47 42 0
278 276 277 0
279 -275 -278 0
280 271 -279 0
281 -48 -280 0
282 -268 -281 0
283 40 -272 0
284 41 42 0
285 -283 -284 0
286 271 -285 0
-287 -282 0
-287 -286 0
-288 -49 0
-288 -50 0
-289 -51 0
-289 288 0
-290 -52 0
-290 289 0
-291 -46 0
-291 269 0
291 46 -269 0
-292 -47 0
-292 291 0
292 47 -291 0
-293 -40 0
-293 -41 0
-294 -42 0
-294 293 0
-295 -43 0
-295 294 0
-296 292 0
-296 295 0
-297 290 0
-297 296 0
-298 49 -45 0
-298 -49 -44 0
298 49 45 0
298 -49 44 0
-299 49 -46 0
-299 -49 -45 0
299 49 46 0
299 -49 45 0
-300 -299 298 0
-300 299 -298 0
300 -299 -298 0
300 299 298 0
-301 47 -46 0
-301 -47 46 0
301 47 46 0
301 -47 -46 0
-302 49 -44 0
-302 -49 301 0
302 49 44 0
302 -49 -301 0
-303 50 302 0
-303 -50 300 0
303 50 -302 0
303 -50 -300 0
-304 49 -47 0
-304 -49 -46 0
304 49 47 0
304 -49 46 0
-305 -304 299 0
-305 304 -299 0
305 -304 -299 0
305 304 299 0
-306 50 298 0
-306 -50 305 0
306 50 -298 0
306 -50 -305 0
-307 -306 303 0
-307 306 -303 0
307 -306 -303 0
307 306 303 0
-308 51 306 0
-308 -51 307 0
308 51 -306 0
308 -51 -307 0
-309 50 299 0
-309 -50 302 0
309 50 -299 0
309 -50 -302 0
-310 50 304 0
-310 -50 298 0
310 50 -304 0
310 -50 -298 0
-311 -310 309 0
-311 310 -309 0
311 -310 -309 0
311 310 309 0
-312 51 310 0
-312 -51 311 0
312 51 -310 0
312 -51 -311 0
-313 -312 308 0
-313 312 -308 0
313 -312 -308 0
313 312 308 0
-314 52 312 0
-314 -52 313 0
314 52 -312 0
314 -52 -313 0
-315 -314 -43 0
-315 314 43 0
-316 -309 303 0
-316 309 -303 0
316 -309 -303 0
316 309 303 0
-317 316 -310 0
-317 -316 310 0
317 316 310 0
317 -316 -310 0
-318 51 303 0
-318 -51 317 0
318 51 -303 0
318 -51 -317 0
-319 -309 306 0
-319 309 -306 0
319 -309 -306 0
319 309 306 0
-320 51 309 0
-320 -51 319 0
320 51 -309 0
320 -51 -319 0
-321 -320 318 0
-321 320 -318 0
321 -320 -318 0
321 320 318 0
-322 52 320 0
-322 -52 321 0
322 52 -320 0
322 -52 -321 0
-323 -322 -42 0
-323 322 42 0
-324 -320 308 0
-324 320 -308 0
324 -320 -308 0
324 320 308 0
-325 324 -312 0
-325 -324 312 0
325 324 312 0
325 -324 -312 0
-326 52 308 0
-326 -52 325 0
326 52 -308 0
326 -52 -325 0
-327 -326 -41 0
-327 326 41 0
-328 318 -308 0
-328 -318 308 0
328 318 308 0
328 -318 -308 0
-329 328 -320 0
-329 -328 320 0
329 328 320 0
329 -328 -320 0
-330 52 318 0
-330 -52 329 0
330 52 -318 0
330 -52 -329 0
-331 -330 -40 0
-331 330 40 0
-332 49 -48 0
-332 -49 48 0
333 -49 -50 0
334 -51 -333 0
335 -52 -334 0
-336 -292 0
-336 -335 0
-337 332 0
-337 336 0
-338 331 0
-338 337 0
-339 327 0
-339 338 0
-340 323 0
-340 339 0
-341 315 0
-341 340 0
342 297 341 0
-343 287 0
-343 -342 0
-344 1 0
-344 343 0
-345 -189 193 0
-345 189 -19 0
345 -189 -193 0
345 189 19 0
-346 -345 -40 0
-346 345 40 0
-347 1 0
-347 346 0
-348 -189 -23 0
-348 189 -20 0
348 -189 23 0
348 189 20 0
-349 -348 -41 0
-349 348 41 0
-350 347 0
-350 349 0
-351 -189 -24 0
-351 189 -21 0
351 -189 24 0
351 189 21 0
-352 -351 -42 0
-352 351 42 0
-353 350 0
-353 352 0
-354 -189 -25 0
-354 189 -22 0
354 -189 25 0
354 189 22 0
-355 -354 -43 0
-355 354 43 0
-356 353 0
-356 355 0
-357 -189 -27 0
-357 189 -19 0
357 -189 27 0
357 189 19 0
-358 -357 -44 0
-358 357 44 0
-359 356 0
-359 358 0
-360 -189 -28 0
-360 189 -20 0
360 -189 28 0
360 189 20 0
-361 -360 -45 0
-361 360 45 0
-362 359 0
-362 361 0
-363 -189 -29 0
-363 189 -21 0
363 -189 29 0
363 189 21 0
-364 -363 -46 0
-364 363 46 0
-365 362 0
-365 364 0
-366 -189 -30 0
-366 189 -22 0
366 -189 30 0
366 189 22 0
-367 -366 -47 0
-367 366 47 0
-368 365 0
-368 367 0
-369 189 0
-369 -201 0
369 -189 201 0
-370 -31 0
-370 369 0
370 31 -369 0
-371 370 -48 0
-371 -370 48 0
-372 368 0
-372 371 0
-373 30 -25 0
-373 -30 25 0
373 30 25 0
373 -30 -25 0
-374 29 -24 0
-374 -29 24 0
374 29 24 0
374 -29 -24 0
-375 28 -23 0
-375 -28 23 0
375 28 23 0
375 -28 -23 0
-376 193 27 0
-376 -193 -27 0
376 193 -27 0
376 -193 27 0
-377 -213 0
-377 376 0
377 213 -376 0
-378 375 0
-378 377 0
378 -375 -377 0
-379 374 0
-379 378 0
379 -374 -378 0
-380 373 0
-380 379 0
380 -373 -379 0
-381 -21 0
-381 187 0
381 21 -187 0
-382 -22 0
-382 381 0
382 22 -381 0
-383 -213 0
-383 382 0
383 213 -382 0
-384 -380 0
-384 383 0
384 380 -383 0
-385 -32 0
-385 384 0
385 32 -384 0
-386 385 -49 0
-386 -385 49 0
-387 372 0
-387 386 0
-388 -33 32 0
-388 33 -32 0
388 -33 -32 0
388 33 32 0
-389 384 0
-389 -388 0
389 -384 388 0
-390 389 -50 0
-390 -389 50 0
-391 387 0
-391 390 0
-392 254 -34 0
-392 -254 34 0
392 254 34 0
392 -254 -34 0
-393 384 0
-393 -392 0
393 -384 392 0
-394 393 -51 0
-394 -393 51 0
-395 391 0
-395 394 0
-396 255 -35 0
-396 -255 35 0
396 255 35 0
396 -255 -35 0
-397 384 0
-397 -396 0
397 -384 396 0
-398 397 -52 0
-398 -397 52 0
-399 395 0
-399 398 0
-400 1 0
-400 1 0
-401 141 0
-401 400 0
-402 1 0
-402 401 0
-403 265 0
-403 402 0
-404 1 0
-404 403 0
-405 344 0
-405 404 0
-406 186 0
-406 405 0
-407 399 0
-407 406 0
-408 1 0
-408 407 0
-409 1 0
-409 408 0
-410 -1 0
-410 409 0
410 0
