p cnf 331 523
1 0
-22 -2 0
-22 -3 0
22 2 3 0
-23 -4 0
-23 22 0
23 4 -22 0
-24 -23 7 0
-24 23 2 0
24 -23 -7 0
24 23 -2 0
-25 -23 5 0
-25 23 3 0
25 -23 -5 0
25 23 -3 0
-26 -4 0
-26 -6 0
26 4 6 0
-27 -4 0
-27 -23 0
27 4 23 0
-28 -26 0
-28 -27 0
28 26 27 0
-29 -23 8 0
-29 23 2 0
29 -23 -8 0
29 23 -2 0
-30 -23 9 0
-30 23 3 0
30 -23 -9 0
30 23 -3 0
-31 -4 0
-31 -10 0
31 4 10 0
-32 -4 0
-32 -23 0
32 4 23 0
-33 -31 0
-33 -32 0
33 31 32 0
-34 -10 -6 0
-34 10 6 0
34 -10 6 0
34 10 -6 0
-35 -8 0
-35 -9 0
35 8 9 0
-36 -10 0
-36 35 0
36 10 -35 0
-37 -8 -7 0
-37 8 7 0
37 -8 7 0
37 8 -7 0
-38 5 0
-38 9 0
38 -5 -9 0
-39 -37 0
-39 38 0
39 37 -38 0
-40 -5 0
-40 -9 0
40 5 9 0
-41 -37 0
-41 40 0
41 37 -40 0
-42 -39 0
-42 -41 0
42 39 41 0
-43 -36 0
-43 -42 0
43 36 42 0
-44 -34 0
-44 43 0
44 34 -43 0
-45 -11 0
-45 23 0
45 11 -23 0
-46 -44 0
-46 45 0
46 44 -45 0
47 -11 -23 0
48 -44 -47 0
-49 36 0
-49 -48 0
50 5 6 0
51 7 -50 0
-52 -48 0
-52 -51 0
53 49 52 0
54 5 7 0
55 8 -54 0
56 -10 -55 0
57 -11 -56 0
58 5 7 0
59 8 -58 0
60 -9 -59 0
61 -11 -60 0
62 5 8 0
63 -9 -62 0
64 -10 -63 0
65 -11 -64 0
66 6 7 0
67 8 -66 0
68 -10 -67 0
69 11 -68 0
70 5 6 0
71 8 -70 0
72 -10 -71 0
73 -11 -72 0
74 5 7 0
75 8 -74 0
76 -9 -75 0
77 -10 -76 0
78 -5 -6 0
79 -8 -78 0
80 10 -79 0
81 -11 -80 0
82 -5 -7 0
83 -8 -82 0
84 9 -83 0
85 10 -84 0
86 6 -8 0
87 9 -86 0
88 10 -87 0
89 -11 -88 0
90 -6 -7 0
91 -8 -90 0
92 9 -91 0
93 -11 -92 0
94 -5 -6 0
95 -8 -94 0
96 9 -95 0
97 11 -96 0
98 -5 -7 0
99 -8 -98 0
100 9 -99 0
101 -11 -100 0
102 6 7 0
103 8 -102 0
104 -9 -103 0
105 -11 -104 0
106 5 6 0
107 8 -106 0
108 -9 -107 0
109 11 -108 0
110 -5 -7 0
111 -8 -110 0
112 10 -111 0
113 -11 -112 0
114 -6 8 0
115 -9 -114 0
116 -10 -115 0
117 -11 -116 0
118 -6 -8 0
119 9 -118 0
120 10 -119 0
121 11 -120 0
122 -6 -7 0
123 -8 -122 0
124 10 -123 0
125 11 -124 0
126 6 8 0
127 -9 -126 0
128 -10 -127 0
129 11 -128 0
130 -5 -6 0
131 -7 -130 0
132 -11 -131 0
133 -5 -6 0
134 -7 -133 0
135 9 -134 0
136 -5 -6 0
137 -7 -136 0
138 8 -137 0
139 5 6 0
140 7 -139 0
141 -8 -140 0
142 5 6 0
143 7 -142 0
144 -10 -143 0
145 5 6 0
146 7 -145 0
147 -9 -146 0
-148 -144 0
-148 -147 0
-149 -141 0
-149 148 0
-150 -138 0
-150 149 0
-151 -135 0
-151 150 0
-152 -132 0
-152 151 0
-153 -129 0
-153 152 0
-154 -125 0
-154 153 0
-155 -121 0
-155 154 0
-156 -117 0
-156 155 0
-157 -113 0
-157 156 0
-158 -109 0
-158 157 0
-159 -105 0
-159 158 0
-160 -101 0
-160 159 0
-161 -97 0
-161 160 0
-162 -93 0
-162 161 0
-163 -89 0
-163 162 0
-164 -85 0
-164 163 0
-165 -81 0
-165 164 0
-166 -77 0
-166 165 0
-167 -73 0
-167 166 0
-168 -69 0
-168 167 0
-169 -65 0
-169 168 0
-170 -61 0
-170 169 0
-171 -57 0
-171 170 0
-172 -53 0
-172 171 0
-173 1 0
-173 172 0
-174 24 -15 0
-174 -24 15 0
-175 1 0
-175 174 0
-176 25 -16 0
-176 -25 16 0
-177 175 0
-177 176 0
-178 28 -17 0
-178 -28 17 0
-179 177 0
-179 178 0
-180 29 -18 0
-180 -29 18 0
-181 179 0
-181 180 0
-182 30 -19 0
-182 -30 19 0
-183 181 0
-183 182 0
-184 33 -20 0
-184 -33 20 0
-185 183 0
-185 184 0
-186 46 -21 0
-186 -46 21 0
-187 185 0
-187 186 0
188 18 19 0
189 20 -188 0
190 -20 16 0
190 20 -16 0
191 -18 17 0
191 18 -17 0
-192 15 0
-192 19 0
-193 -191 0
-193 192 0
-194 -15 0
-194 -19 0
-195 -191 0
-195 194 0
196 193 195 0
-197 -189 0
-197 -196 0
-198 -190 0
-198 197 0
-199 -12 0
-199 -13 0
-200 -14 0
-200 199 0
-201 21 0
-201 200 0
-202 198 0
-202 201 0
203 -189 202 0
-204 -15 0
-204 -16 0
-205 -17 0
-205 204 0
206 202 205 0
-207 -203 0
-207 -206 0
-208 -15 0
-208 -17 0
-209 -18 0
-209 208 0
-210 20 0
-210 209 0
-211 21 0
-211 210 0
-212 -15 0
-212 -17 0
-213 -18 0
-213 212 0
-214 19 0
-214 213 0
-215 21 0
-215 214 0
-216 -15 0
-216 -18 0
-217 19 0
-217 216 0
-218 20 0
-218 217 0
-219 21 0
-219 218 0
-220 -16 0
-220 -17 0
-221 -18 0
-221 220 0
-222 20 0
-222 221 0
-223 -21 0
-223 222 0
-224 -15 0
-224 -16 0
-225 -18 0
-225 224 0
-226 20 0
-226 225 0
-227 21 0
-227 226 0
-228 -15 0
-228 -17 0
-229 -18 0
-229 228 0
-230 19 0
-230 229 0
-231 20 0
-231 230 0
-232 15 0
-232 16 0
-233 18 0
-233 232 0
-234 -20 0
-234 233 0
-235 21 0
-235 234 0
-236 15 0
-236 17 0
-237 18 0
-237 236 0
-238 -19 0
-238 237 0
-239 -20 0
-239 238 0
-240 -16 0
-240 18 0
-241 -19 0
-241 240 0
-242 -20 0
-242 241 0
-243 21 0
-243 242 0
-244 16 0
-244 17 0
-245 18 0
-245 244 0
-246 -19 0
-246 245 0
-247 21 0
-247 246 0
-248 15 0
-248 16 0
-249 18 0
-249 248 0
-250 -19 0
-250 249 0
-251 -21 0
-251 250 0
-252 15 0
-252 17 0
-253 18 0
-253 252 0
-254 -19 0
-254 253 0
-255 21 0
-255 254 0
-256 -16 0
-256 -17 0
-257 -18 0
-257 256 0
-258 19 0
-258 257 0
-259 21 0
-259 258 0
-260 -15 0
-260 -16 0
-261 -18 0
-261 260 0
-262 19 0
-262 261 0
-263 -21 0
-263 262 0
-264 15 0
-264 17 0
-265 18 0
-265 264 0
-266 -20 0
-266 265 0
-267 21 0
-267 266 0
-268 16 0
-268 -18 0
-269 19 0
-269 268 0
-270 20 0
-270 269 0
-271 21 0
-271 270 0
-272 16 0
-272 18 0
-273 -19 0
-273 272 0
-274 -20 0
-274 273 0
-275 -21 0
-275 274 0
-276 16 0
-276 17 0
-277 18 0
-277 276 0
-278 -20 0
-278 277 0
-279 -21 0
-279 278 0
-280 -16 0
-280 -18 0
-281 19 0
-281 280 0
-282 20 0
-282 281 0
-283 -21 0
-283 282 0
-284 15 0
-284 16 0
-285 17 0
-285 284 0
-286 21 0
-286 285 0
-287 15 0
-287 16 0
-288 17 0
-288 287 0
-289 -19 0
-289 288 0
-290 15 0
-290 16 0
-291 17 0
-291 290 0
-292 -18 0
-292 291 0
-293 -15 0
-293 -16 0
-294 -17 0
-294 293 0
-295 18 0
-295 294 0
-296 -15 0
-296 -16 0
-297 -17 0
-297 296 0
-298 20 0
-298 297 0
-299 -15 0
-299 -16 0
-300 -17 0
-300 299 0
-301 19 0
-301 300 0
302 298 301 0
303 295 -302 0
304 292 -303 0
305 289 -304 0
306 286 -305 0
307 283 -306 0
308 279 -307 0
309 275 -308 0
310 271 -309 0
311 267 -310 0
312 263 -311 0
313 259 -312 0
314 255 -313 0
315 251 -314 0
316 247 -315 0
317 243 -316 0
318 239 -317 0
319 235 -318 0
320 231 -319 0
321 227 -320 0
322 223 -321 0
323 219 -322 0
324 215 -323 0
325 211 -324 0
326 207 -325 0
327 -1 -326 0
-328 1 0
-328 187 0
-329 1 0
-329 328 0
-330 173 0
-330 329 0
-331 -327 0
-331 330 0
331 0
