p cnf 171 211
1 0
-12 -2 0
-12 -3 0
-13 -4 0
-13 12 0
14 8 9 0
15 10 -14 0
-16 8 -7 0
-16 -8 7 0
-17 9 -5 0
-17 -9 5 0
-18 16 0
-18 17 0
-19 10 -6 0
-19 -10 6 0
-20 18 0
-20 19 0
-21 -15 0
-21 20 0
22 2 3 0
23 4 -22 0
-24 -10 -6 0
-24 10 6 0
-25 -8 0
-25 -9 0
-26 -10 0
-26 25 0
-27 -8 -7 0
-27 8 7 0
28 -5 -9 0
29 27 -28 0
30 5 9 0
31 27 -30 0
-32 -29 0
-32 -31 0
33 26 32 0
34 24 -33 0
-35 11 0
-35 13 0
-36 21 0
-36 35 0
-37 -5 0
-37 -7 0
-38 -6 0
-38 37 0
-39 -15 0
-39 38 0
40 36 39 0
41 -1 -40 0
42 -11 -23 0
43 -34 -42 0
-44 26 0
-44 -43 0
45 5 6 0
46 7 -45 0
-47 -43 0
-47 -46 0
48 44 47 0
49 5 7 0
50 8 -49 0
51 -10 -50 0
52 -11 -51 0
53 5 7 0
54 8 -53 0
55 -9 -54 0
56 -11 -55 0
57 5 8 0
58 -9 -57 0
59 -10 -58 0
60 -11 -59 0
61 6 7 0
62 8 -61 0
63 -10 -62 0
64 11 -63 0
65 5 6 0
66 8 -65 0
67 -10 -66 0
68 -11 -67 0
69 5 7 0
70 8 -69 0
71 -9 -70 0
72 -10 -71 0
73 -5 -6 0
74 -8 -73 0
75 10 -74 0
76 -11 -75 0
77 -5 -7 0
78 -8 -77 0
79 9 -78 0
80 10 -79 0
81 6 -8 0
82 9 -81 0
83 10 -82 0
84 -11 -83 0
85 -6 -7 0
86 -8 -85 0
87 9 -86 0
88 -11 -87 0
89 -5 -6 0
90 -8 -89 0
91 9 -90 0
92 11 -91 0
93 -5 -7 0
94 -8 -93 0
95 9 -94 0
96 -11 -95 0
97 6 7 0
98 8 -97 0
99 -9 -98 0
100 -11 -99 0
101 5 6 0
102 8 -101 0
103 -9 -102 0
104 11 -103 0
105 -5 -7 0
106 -8 -105 0
107 10 -106 0
108 -11 -107 0
109 -6 8 0
110 -9 -109 0
111 -10 -110 0
112 -11 -111 0
113 -6 -8 0
114 9 -113 0
115 10 -114 0
116 11 -115 0
117 -6 -7 0
118 -8 -117 0
119 10 -118 0
120 11 -119 0
121 6 8 0
122 -9 -121 0
123 -10 -122 0
124 11 -123 0
125 -5 -6 0
126 -7 -125 0
127 -11 -126 0
128 -5 -6 0
129 -7 -128 0
130 9 -129 0
131 -5 -6 0
132 -7 -131 0
133 8 -132 0
134 5 6 0
135 7 -134 0
136 -8 -135 0
137 5 6 0
138 7 -137 0
139 -10 -138 0
140 5 6 0
141 7 -140 0
142 -9 -141 0
-143 -139 0
-143 -142 0
-144 -136 0
-144 143 0
-145 -133 0
-145 144 0
-146 -130 0
-146 145 0
-147 -127 0
-147 146 0
-148 -124 0
-148 147 0
-149 -120 0
-149 148 0
-150 -116 0
-150 149 0
-151 -112 0
-151 150 0
-152 -108 0
-152 151 0
-153 -104 0
-153 152 0
-154 -100 0
-154 153 0
-155 -96 0
-155 154 0
-156 -92 0
-156 155 0
-157 -88 0
-157 156 0
-158 -84 0
-158 157 0
-159 -80 0
-159 158 0
-160 -76 0
-160 159 0
-161 -72 0
-161 160 0
-162 -68 0
-162 161 0
-163 -64 0
-163 162 0
-164 -60 0
-164 163 0
-165 -56 0
-165 164 0
-166 -52 0
-166 165 0
-167 -48 0
-167 166 0
-168 1 0
-168 167 0
-169 1 0
-169 1 0
-170 168 0
-170 169 0
-171 -41 0
-171 170 0
171 0
