p cnf 94 204
1 0
-19 -2 0
-19 -3 0
19 2 3 0
-20 -4 0
-20 19 0
20 4 -19 0
-21 -20 -7 0
-21 20 -2 0
21 -20 7 0
21 20 2 0
-22 -21 -12 0
-22 21 12 0
-23 1 0
-23 22 0
-24 -20 -5 0
-24 20 -3 0
24 -20 5 0
24 20 3 0
-25 -24 -13 0
-25 24 13 0
-26 23 0
-26 25 0
-27 -20 -6 0
-27 20 -4 0
27 -20 6 0
27 20 4 0
-28 -27 -14 0
-28 27 14 0
-29 26 0
-29 28 0
-30 -20 -8 0
-30 20 -2 0
30 -20 8 0
30 20 2 0
-31 -30 -15 0
-31 30 15 0
-32 29 0
-32 31 0
-33 -20 -9 0
-33 20 -3 0
33 -20 9 0
33 20 3 0
-34 -33 -16 0
-34 33 16 0
-35 32 0
-35 34 0
-36 -20 -10 0
-36 20 -4 0
36 -20 10 0
36 20 4 0
-37 -36 -17 0
-37 36 17 0
-38 35 0
-38 37 0
-39 -8 0
-39 -9 0
39 8 9 0
-40 -10 0
-40 39 0
40 10 -39 0
-41 8 -7 0
-41 -8 7 0
41 8 7 0
41 -8 -7 0
-42 9 -5 0
-42 -9 5 0
42 9 5 0
42 -9 -5 0
-43 41 0
-43 42 0
43 -41 -42 0
-44 10 -6 0
-44 -10 6 0
44 10 6 0
44 -10 -6 0
-45 43 0
-45 44 0
45 -43 -44 0
-46 -40 0
-46 45 0
46 40 -45 0
-47 -11 0
-47 20 0
47 11 -20 0
-48 -46 0
-48 47 0
48 46 -47 0
-49 48 -18 0
-49 -48 18 0
-50 38 0
-50 49 0
-51 1 0
-51 50 0
-52 1 0
-52 51 0
-53 1 0
-53 52 0
-54 -2 0
-54 -3 0
54 2 3 0
-55 -4 0
-55 54 0
55 4 -54 0
-56 -55 7 0
-56 55 2 0
56 -55 -7 0
56 55 -2 0
57 56 12 0
57 -56 -12 0
58 -1 -57 0
-59 -55 5 0
-59 55 3 0
59 -55 -5 0
59 55 -3 0
60 59 13 0
60 -59 -13 0
61 -58 -60 0
-62 -4 0
-62 -6 0
62 4 6 0
-63 -4 0
-63 -55 0
63 4 55 0
-64 -62 0
-64 -63 0
64 62 63 0
65 64 14 0
65 -64 -14 0
66 -61 -65 0
-67 -55 8 0
-67 55 2 0
67 -55 -8 0
67 55 -2 0
68 67 15 0
68 -67 -15 0
69 -66 -68 0
-70 -55 9 0
-70 55 3 0
70 -55 -9 0
70 55 -3 0
71 70 16 0
71 -70 -16 0
72 -69 -71 0
-73 -4 0
-73 -10 0
73 4 10 0
-74 -4 0
-74 -55 0
74 4 55 0
-75 -73 0
-75 -74 0
75 73 74 0
76 75 17 0
76 -75 -17 0
77 -72 -76 0
-78 -10 -6 0
-78 10 6 0
78 -10 6 0
78 10 -6 0
-79 -8 0
-79 -9 0
79 8 9 0
-80 -10 0
-80 79 0
80 10 -79 0
-81 -8 -7 0
-81 8 7 0
81 -8 7 0
81 8 -7 0
-82 5 0
-82 9 0
82 -5 -9 0
-83 -81 0
-83 82 0
83 81 -82 0
-84 -5 0
-84 -9 0
84 5 9 0
-85 -81 0
-85 84 0
85 81 -84 0
-86 -83 0
-86 -85 0
86 83 85 0
-87 -80 0
-87 -86 0
87 80 86 0
-88 -78 0
-88 87 0
88 78 -87 0
-89 -11 0
-89 55 0
89 11 -55 0
-90 -88 0
-90 89 0
90 88 -89 0
91 90 18 0
91 -90 -18 0
92 -77 -91 0
93 -1 -92 0
-94 53 0
-94 -93 0
94 0
