p cnf 372 1038
1 0
-35 -2 0
-35 -3 0
-36 -4 0
-36 -5 0
-37 35 0
-37 36 0
-38 -6 0
-38 -7 0
-39 -8 0
-39 -9 0
-40 38 0
-40 39 0
-41 37 0
-41 40 0
-42 -17 13 0
-42 17 -13 0
42 -17 -13 0
42 17 13 0
-43 42 14 0
-43 -42 -14 0
43 42 -14 0
43 -42 14 0
-44 43 15 0
-44 -43 -15 0
44 43 -15 0
44 -43 15 0
-45 -18 0
-45 -19 0
45 18 19 0
46 20 21 0
47 -45 -46 0
48 22 23 0
49 24 25 0
50 -48 -49 0
51 -47 -50 0
52 44 18 0
52 -44 -18 0
53 -19 10 0
53 19 -10 0
-54 -52 0
-54 -53 0
55 -20 11 0
55 20 -11 0
56 -21 12 0
56 21 -12 0
-57 -55 0
-57 -56 0
-58 54 0
-58 57 0
59 -22 13 0
59 22 -13 0
60 -23 14 0
60 23 -14 0
-61 -59 0
-61 -60 0
62 -24 15 0
62 24 -15 0
63 -25 16 0
63 25 -16 0
-64 -62 0
-64 -63 0
-65 61 0
-65 64 0
-66 58 0
-66 65 0
-67 -51 0
-67 66 0
-68 26 0
-68 67 0
-69 41 0
-69 68 0
-70 -10 0
-70 44 0
-71 -11 0
-71 -12 0
-72 70 0
-72 71 0
-73 -13 0
-73 -14 0
-74 -15 0
-74 -16 0
-75 73 0
-75 74 0
-76 72 0
-76 75 0
-77 -51 0
-77 76 0
78 69 77 0
79 27 28 0
80 29 -79 0
81 30 -80 0
82 31 -81 0
83 32 -82 0
84 33 -83 0
85 34 -84 0
-86 -20 0
-86 45 0
86 20 -45 0
-87 -21 0
-87 86 0
87 21 -86 0
-88 -22 0
-88 87 0
88 22 -87 0
-89 -23 0
-89 88 0
89 23 -88 0
-90 -24 0
-90 89 0
90 24 -89 0
-91 -25 0
-91 90 0
91 25 -90 0
92 10 11 0
93 12 -92 0
94 13 -93 0
95 14 -94 0
96 15 -95 0
97 16 -96 0
98 17 -97 0
99 -91 -98 0
100 -85 -99 0
-101 27 -25 0
-101 -27 -24 0
101 27 25 0
101 -27 24 0
-102 27 -23 0
-102 -27 -22 0
102 27 23 0
102 -27 22 0
-103 27 -21 0
-103 -27 -20 0
103 27 21 0
103 -27 20 0
-104 27 -22 0
-104 -27 -21 0
104 27 22 0
104 -27 21 0
-105 -104 103 0
-105 104 -103 0
105 -104 -103 0
105 104 103 0
-106 105 -102 0
-106 -105 102 0
106 105 102 0
106 -105 -102 0
-107 106 -101 0
-107 -106 101 0
107 106 101 0
107 -106 -101 0
-108 27 -19 0
-108 -27 -18 0
108 27 19 0
108 -27 18 0
-109 28 108 0
-109 -28 107 0
109 28 -108 0
109 -28 -107 0
-110 28 102 0
-110 -28 103 0
110 28 -102 0
110 -28 -103 0
-111 29 110 0
-111 -29 109 0
111 29 -110 0
111 -29 -109 0
-112 28 101 0
-112 -28 102 0
112 28 -101 0
112 -28 -102 0
-113 28 103 0
-113 -28 108 0
113 28 -103 0
113 -28 -108 0
-114 27 -20 0
-114 -27 -19 0
114 27 20 0
114 -27 19 0
-115 28 104 0
-115 -28 114 0
115 28 -104 0
115 -28 -114 0
-116 -115 113 0
-116 115 -113 0
116 -115 -113 0
116 115 113 0
-117 116 -110 0
-117 -116 110 0
117 116 110 0
117 -116 -110 0
-118 117 -112 0
-118 -117 112 0
118 117 112 0
118 -117 -112 0
-119 29 113 0
-119 -29 118 0
119 29 -113 0
119 -29 -118 0
-120 22 -21 0
-120 -22 21 0
120 22 21 0
120 -22 -21 0
-121 120 23 0
-121 -120 -23 0
121 120 -23 0
121 -120 23 0
-122 121 25 0
-122 -121 -25 0
122 121 -25 0
122 -121 25 0
-123 27 -18 0
-123 -27 122 0
123 27 18 0
123 -27 -122 0
-124 28 114 0
-124 -28 123 0
124 28 -114 0
124 -28 -123 0
-125 -124 109 0
-125 124 -109 0
125 -124 -109 0
125 124 109 0
-126 125 -113 0
-126 -125 113 0
126 125 113 0
126 -125 -113 0
-127 126 -110 0
-127 -126 110 0
127 126 110 0
127 -126 -110 0
-128 29 109 0
-128 -29 127 0
128 29 -109 0
128 -29 -127 0
-129 27 -24 0
-129 -27 -23 0
129 27 24 0
129 -27 23 0
-130 28 129 0
-130 -28 104 0
130 28 -129 0
130 -28 -104 0
-131 124 -113 0
-131 -124 113 0
131 124 113 0
131 -124 -113 0
-132 131 -115 0
-132 -131 115 0
132 131 115 0
132 -131 -115 0
-133 132 -130 0
-133 -132 130 0
133 132 130 0
133 -132 -130 0
-134 29 124 0
-134 -29 133 0
134 29 -124 0
134 -29 -133 0
-135 -134 128 0
-135 134 -128 0
135 -134 -128 0
135 134 128 0
-136 135 -119 0
-136 -135 119 0
136 135 119 0
136 -135 -119 0
-137 136 -111 0
-137 -136 111 0
137 136 111 0
137 -136 -111 0
-138 30 111 0
-138 -30 137 0
138 30 -111 0
138 -30 -137 0
-139 29 112 0
-139 -29 113 0
139 29 -112 0
139 -29 -113 0
-140 29 130 0
-140 -29 124 0
140 29 -130 0
140 -29 -124 0
-141 -140 119 0
-141 140 -119 0
141 -140 -119 0
141 140 119 0
-142 141 -139 0
-142 -141 139 0
142 141 139 0
142 -141 -139 0
-143 30 128 0
-143 -30 142 0
143 30 -128 0
143 -30 -142 0
-144 114 -103 0
-144 -114 103 0
144 114 103 0
144 -114 -103 0
-145 144 -104 0
-145 -144 104 0
145 144 104 0
145 -144 -104 0
-146 145 -129 0
-146 -145 129 0
146 145 129 0
146 -145 -129 0
-147 28 123 0
-147 -28 146 0
147 28 -123 0
147 -28 -146 0
-148 29 115 0
-148 -29 147 0
148 29 -115 0
148 -29 -147 0
-149 147 -109 0
-149 -147 109 0
149 147 109 0
149 -147 -109 0
-150 149 -124 0
-150 -149 124 0
150 149 124 0
150 -149 -124 0
-151 150 -115 0
-151 -150 115 0
151 150 115 0
151 -150 -115 0
-152 29 147 0
-152 -29 151 0
152 29 -147 0
152 -29 -151 0
-153 152 -128 0
-153 -152 128 0
153 152 128 0
153 -152 -128 0
-154 153 -134 0
-154 -153 134 0
154 153 134 0
154 -153 -134 0
-155 154 -148 0
-155 -154 148 0
155 154 148 0
155 -154 -148 0
-156 30 148 0
-156 -30 155 0
156 30 -148 0
156 -30 -155 0
-157 -156 143 0
-157 156 -143 0
157 -156 -143 0
157 156 143 0
-158 157 -138 0
-158 -157 138 0
158 157 138 0
158 -157 -138 0
-159 -148 119 0
-159 148 -119 0
159 -148 -119 0
159 148 119 0
-160 159 -111 0
-160 -159 111 0
160 159 111 0
160 -159 -111 0
-161 160 -139 0
-161 -160 139 0
161 160 139 0
161 -160 -139 0
-162 30 139 0
-162 -30 161 0
162 30 -139 0
162 -30 -161 0
-163 31 162 0
-163 -31 158 0
163 31 -162 0
163 -31 -158 0
-164 152 -111 0
-164 -152 111 0
164 152 111 0
164 -152 -111 0
-165 164 -140 0
-165 -164 140 0
165 164 140 0
165 -164 -140 0
-166 165 -139 0
-166 -165 139 0
166 165 139 0
166 -165 -139 0
-167 30 134 0
-167 -30 166 0
167 30 -134 0
167 -30 -166 0
-168 167 -156 0
-168 -167 156 0
168 167 156 0
168 -167 -156 0
-169 168 -138 0
-169 -168 138 0
169 168 138 0
169 -168 -138 0
-170 169 -162 0
-170 -169 162 0
170 169 162 0
170 -169 -162 0
-171 31 138 0
-171 -31 170 0
171 31 -138 0
171 -31 -170 0
-172 134 -119 0
-172 -134 119 0
172 134 119 0
172 -134 -119 0
-173 172 -148 0
-173 -172 148 0
173 172 148 0
173 -172 -148 0
-174 173 -140 0
-174 -173 140 0
174 173 140 0
174 -173 -140 0
-175 30 140 0
-175 -30 174 0
175 30 -140 0
175 -30 -174 0
-176 153 -148 0
-176 -153 148 0
176 153 148 0
176 -153 -148 0
-177 176 -111 0
-177 -176 111 0
177 176 111 0
177 -176 -111 0
-178 177 -139 0
-178 -177 139 0
178 177 139 0
178 -177 -139 0
-179 30 119 0
-179 -30 178 0
179 30 -119 0
179 -30 -178 0
-180 -179 143 0
-180 179 -143 0
180 -179 -143 0
180 179 143 0
-181 180 -156 0
-181 -180 156 0
181 180 156 0
181 -180 -156 0
-182 181 -175 0
-182 -181 175 0
182 181 175 0
182 -181 -175 0
-183 31 156 0
-183 -31 182 0
183 31 -156 0
183 -31 -182 0
-184 134 -111 0
-184 -134 111 0
184 134 111 0
184 -134 -111 0
-185 184 -140 0
-185 -184 140 0
185 184 140 0
185 -184 -140 0
-186 30 152 0
-186 -30 185 0
186 30 -152 0
186 -30 -185 0
-187 186 -143 0
-187 -186 143 0
187 186 143 0
187 -186 -143 0
-188 187 -156 0
-188 -187 156 0
188 187 156 0
188 -187 -156 0
-189 188 -162 0
-189 -188 162 0
189 188 162 0
189 -188 -162 0
-190 31 186 0
-190 -31 189 0
190 31 -186 0
190 -31 -189 0
-191 186 -167 0
-191 -186 167 0
191 186 167 0
191 -186 -167 0
-192 191 -179 0
-192 -191 179 0
192 191 179 0
192 -191 -179 0
-193 192 -138 0
-193 -192 138 0
193 192 138 0
193 -192 -138 0
-194 31 179 0
-194 -31 193 0
194 31 -179 0
194 -31 -193 0
-195 -194 190 0
-195 194 -190 0
195 -194 -190 0
195 194 190 0
-196 195 -183 0
-196 -195 183 0
196 195 183 0
196 -195 -183 0
-197 196 -171 0
-197 -196 171 0
197 196 171 0
197 -196 -171 0
-198 197 -163 0
-198 -197 163 0
198 197 163 0
198 -197 -163 0
-199 32 163 0
-199 -32 198 0
199 32 -163 0
199 -32 -198 0
-200 186 -179 0
-200 -186 179 0
200 186 179 0
200 -186 -179 0
-201 200 -156 0
-201 -200 156 0
201 200 156 0
201 -200 -156 0
-202 31 175 0
-202 -31 201 0
202 31 -175 0
202 -31 -201 0
-203 -167 143 0
-203 167 -143 0
203 -167 -143 0
203 167 143 0
-204 203 -179 0
-204 -203 179 0
204 203 179 0
204 -203 -179 0
-205 204 -138 0
-205 -204 138 0
205 204 138 0
205 -204 -138 0
-206 205 -162 0
-206 -205 162 0
206 205 162 0
206 -205 -162 0
-207 31 167 0
-207 -31 206 0
207 31 -167 0
207 -31 -206 0
-208 207 -171 0
-208 -207 171 0
208 207 171 0
208 -207 -171 0
-209 208 -202 0
-209 -208 202 0
209 208 202 0
209 -208 -202 0
-210 209 -163 0
-210 -209 163 0
210 209 163 0
210 -209 -163 0
-211 32 202 0
-211 -32 210 0
211 32 -202 0
211 -32 -210 0
-212 187 -167 0
-212 -187 167 0
212 187 167 0
212 -187 -167 0
-213 212 -156 0
-213 -212 156 0
213 212 156 0
213 -212 -156 0
-214 213 -175 0
-214 -213 175 0
214 213 175 0
214 -213 -175 0
-215 31 143 0
-215 -31 214 0
215 31 -143 0
215 -31 -214 0
-216 215 -183 0
-216 -215 183 0
216 215 183 0
216 -215 -183 0
-217 216 -171 0
-217 -216 171 0
217 216 171 0
217 -216 -171 0
-218 217 -202 0
-218 -217 202 0
218 217 202 0
218 -217 -202 0
-219 32 171 0
-219 -32 218 0
219 32 -171 0
219 -32 -218 0
-220 32 183 0
-220 -32 197 0
220 32 -183 0
220 -32 -197 0
-221 195 -171 0
-221 -195 171 0
221 195 171 0
221 -195 -171 0
-222 32 215 0
-222 -32 221 0
222 32 -215 0
222 -32 -221 0
-223 208 -163 0
-223 -208 163 0
223 208 163 0
223 -208 -163 0
-224 32 194 0
-224 -32 223 0
224 32 -194 0
224 -32 -223 0
-225 -224 222 0
-225 224 -222 0
225 -224 -222 0
225 224 222 0
-226 225 -220 0
-226 -225 220 0
226 225 220 0
226 -225 -220 0
-227 226 -219 0
-227 -226 219 0
227 226 219 0
227 -226 -219 0
-228 227 -211 0
-228 -227 211 0
228 227 211 0
228 -227 -211 0
-229 228 -199 0
-229 -228 199 0
229 228 199 0
229 -228 -199 0
-230 33 199 0
-230 -33 229 0
230 33 -199 0
230 -33 -229 0
-231 207 -194 0
-231 -207 194 0
231 207 194 0
231 -207 -194 0
-232 231 -171 0
-232 -231 171 0
232 231 171 0
232 -231 -171 0
-233 232 -163 0
-233 -232 163 0
233 232 163 0
233 -232 -163 0
-234 32 190 0
-234 -32 233 0
234 32 -190 0
234 -32 -233 0
-235 216 -202 0
-235 -216 202 0
235 216 202 0
235 -216 -202 0
-236 32 207 0
-236 -32 235 0
236 32 -207 0
236 -32 -235 0
-237 -236 234 0
-237 236 -234 0
237 -236 -234 0
237 236 234 0
-238 237 -224 0
-238 -237 224 0
238 237 224 0
238 -237 -224 0
-239 238 -220 0
-239 -238 220 0
239 238 220 0
239 -238 -220 0
-240 239 -219 0
-240 -239 219 0
240 239 219 0
240 -239 -219 0
-241 33 234 0
-241 -33 240 0
241 33 -234 0
241 -33 -240 0
-242 -236 222 0
-242 236 -222 0
242 -236 -222 0
242 236 222 0
-243 242 -199 0
-243 -242 199 0
243 242 199 0
243 -242 -199 0
-244 33 219 0
-244 -33 243 0
244 33 -219 0
244 -33 -243 0
-245 -244 241 0
-245 244 -241 0
245 -244 -241 0
245 244 241 0
-246 245 -230 0
-246 -245 230 0
246 245 230 0
246 -245 -230 0
-247 34 230 0
-247 -34 246 0
247 34 -230 0
247 -34 -246 0
248 -247 17 0
248 247 -17 0
-249 240 -211 0
-249 -240 211 0
249 240 211 0
249 -240 -211 0
-250 33 211 0
-250 -33 249 0
250 33 -211 0
250 -33 -249 0
-251 234 -224 0
-251 -234 224 0
251 234 224 0
251 -234 -224 0
-252 251 -220 0
-252 -251 220 0
252 251 220 0
252 -251 -220 0
-253 252 -199 0
-253 -252 199 0
253 252 199 0
253 -252 -199 0
-254 33 224 0
-254 -33 253 0
254 33 -224 0
254 -33 -253 0
-255 254 -244 0
-255 -254 244 0
255 254 244 0
255 -254 -244 0
-256 255 -250 0
-256 -255 250 0
256 255 250 0
256 -255 -250 0
-257 256 -230 0
-257 -256 230 0
257 256 230 0
257 -256 -230 0
-258 34 250 0
-258 -34 257 0
258 34 -250 0
258 -34 -257 0
259 -258 16 0
259 258 -16 0
-260 236 -220 0
-260 -236 220 0
260 236 220 0
260 -236 -220 0
-261 260 -219 0
-261 -260 219 0
261 260 219 0
261 -260 -219 0
-262 261 -211 0
-262 -261 211 0
262 261 211 0
262 -261 -211 0
-263 262 -199 0
-263 -262 199 0
263 262 199 0
263 -262 -199 0
-264 33 236 0
-264 -33 263 0
264 33 -236 0
264 -33 -263 0
-265 234 -222 0
-265 -234 222 0
265 234 222 0
265 -234 -222 0
-266 265 -211 0
-266 -265 211 0
266 265 211 0
266 -265 -211 0
-267 33 220 0
-267 -33 266 0
267 33 -220 0
267 -33 -266 0
-268 -267 264 0
-268 267 -264 0
268 -267 -264 0
268 267 264 0
-269 268 -244 0
-269 -268 244 0
269 268 244 0
269 -268 -244 0
-270 269 -250 0
-270 -269 250 0
270 269 250 0
270 -269 -250 0
-271 34 244 0
-271 -34 270 0
271 34 -244 0
271 -34 -270 0
272 -271 15 0
272 271 -15 0
-273 33 222 0
-273 -33 228 0
273 33 -222 0
273 -33 -228 0
-274 273 -254 0
-274 -273 254 0
274 273 254 0
274 -273 -254 0
-275 274 -267 0
-275 -274 267 0
275 274 267 0
275 -274 -267 0
-276 275 -244 0
-276 -275 244 0
276 275 244 0
276 -275 -244 0
-277 34 267 0
-277 -34 276 0
277 34 -267 0
277 -34 -276 0
278 -277 14 0
278 277 -14 0
-279 -264 241 0
-279 264 -241 0
279 -264 -241 0
279 264 241 0
-280 279 -254 0
-280 -279 254 0
280 279 254 0
280 -279 -254 0
-281 280 -267 0
-281 -280 267 0
281 280 267 0
281 -280 -267 0
-282 34 254 0
-282 -34 281 0
282 34 -254 0
282 -34 -281 0
283 -282 13 0
283 282 -13 0
-284 273 -264 0
-284 -273 264 0
284 273 264 0
284 -273 -264 0
-285 284 -267 0
-285 -284 267 0
285 284 267 0
285 -284 -267 0
-286 285 -244 0
-286 -285 244 0
286 285 244 0
286 -285 -244 0
-287 286 -230 0
-287 -286 230 0
287 286 230 0
287 -286 -230 0
-288 34 264 0
-288 -34 287 0
288 34 -264 0
288 -34 -287 0
289 -288 12 0
289 288 -12 0
-290 -273 241 0
-290 273 -241 0
290 -273 -241 0
290 273 241 0
-291 290 -254 0
-291 -290 254 0
291 290 254 0
291 -290 -254 0
-292 291 -267 0
-292 -291 267 0
292 291 267 0
292 -291 -267 0
-293 292 -250 0
-293 -292 250 0
293 292 250 0
293 -292 -250 0
-294 34 273 0
-294 -34 293 0
294 34 -273 0
294 -34 -293 0
295 -294 11 0
295 294 -11 0
-296 279 -267 0
-296 -279 267 0
296 279 267 0
296 -279 -267 0
-297 296 -230 0
-297 -296 230 0
297 296 230 0
297 -296 -230 0
-298 34 241 0
-298 -34 297 0
298 34 -241 0
298 -34 -297 0
299 -298 10 0
299 298 -10 0
300 27 26 0
300 -27 -26 0
-301 27 0
-301 28 0
-302 29 0
-302 301 0
-303 30 0
-303 302 0
-304 31 0
-304 303 0
-305 32 0
-305 304 0
-306 33 0
-306 305 0
-307 34 0
-307 306 0
308 91 307 0
309 -300 -308 0
310 -299 -309 0
311 -295 -310 0
312 -289 -311 0
313 -283 -312 0
314 -278 -313 0
315 -272 -314 0
316 -259 -315 0
317 -248 -316 0
-318 -100 0
-318 -317 0
319 -78 318 0
320 -1 -319 0
-321 10 1 0
-321 -10 -1 0
-322 1 0
-322 321 0
-323 11 1 0
-323 -11 -1 0
-324 322 0
-324 323 0
-325 12 1 0
-325 -12 -1 0
-326 324 0
-326 325 0
-327 13 1 0
-327 -13 -1 0
-328 326 0
-328 327 0
-329 14 1 0
-329 -14 -1 0
-330 328 0
-330 329 0
-331 15 1 0
-331 -15 -1 0
-332 330 0
-332 331 0
-333 16 1 0
-333 -16 -1 0
-334 332 0
-334 333 0
-335 17 1 0
-335 -17 -1 0
-336 334 0
-336 335 0
-337 18 1 0
-337 -18 -1 0
-338 336 0
-338 337 0
-339 19 1 0
-339 -19 -1 0
-340 338 0
-340 339 0
-341 20 1 0
-341 -20 -1 0
-342 340 0
-342 341 0
-343 21 1 0
-343 -21 -1 0
-344 342 0
-344 343 0
-345 22 1 0
-345 -22 -1 0
-346 344 0
-346 345 0
-347 23 1 0
-347 -23 -1 0
-348 346 0
-348 347 0
-349 24 1 0
-349 -24 -1 0
-350 348 0
-350 349 0
-351 25 1 0
-351 -25 -1 0
-352 350 0
-352 351 0
-353 26 1 0
-353 -26 -1 0
-354 352 0
-354 353 0
-355 27 1 0
-355 -27 -1 0
-356 354 0
-356 355 0
-357 28 1 0
-357 -28 -1 0
-358 356 0
-358 357 0
-359 29 1 0
-359 -29 -1 0
-360 358 0
-360 359 0
-361 30 1 0
-361 -30 -1 0
-362 360 0
-362 361 0
-363 31 1 0
-363 -31 -1 0
-364 362 0
-364 363 0
-365 32 1 0
-365 -32 -1 0
-366 364 0
-366 365 0
-367 33 1 0
-367 -33 -1 0
-368 366 0
-368 367 0
-369 34 1 0
-369 -34 -1 0
-370 368 0
-370 369 0
-371 1 0
-371 370 0
-372 -320 0
-372 371 0
372 0
