p cnf 1077 3200
1 0
-101 -2 0
-101 -3 0
101 2 3 0
-102 -4 0
-102 -5 0
102 4 5 0
-103 101 0
-103 102 0
103 -101 -102 0
-104 -6 0
-104 -7 0
104 6 7 0
-105 -8 0
-105 -9 0
105 8 9 0
-106 104 0
-106 105 0
106 -104 -105 0
-107 103 0
-107 106 0
107 -103 -106 0
-108 -17 13 0
-108 17 -13 0
108 -17 -13 0
108 17 13 0
-109 108 14 0
-109 -108 -14 0
109 108 -14 0
109 -108 14 0
-110 109 15 0
-110 -109 -15 0
110 109 -15 0
110 -109 15 0
-111 -107 110 0
-111 107 -2 0
111 -107 -110 0
111 107 2 0
-112 -107 -10 0
-112 107 -3 0
112 -107 10 0
112 107 3 0
-113 -107 -11 0
-113 107 -4 0
113 -107 11 0
113 107 4 0
-114 -107 -12 0
-114 107 -5 0
114 -107 12 0
114 107 5 0
-115 -107 -13 0
-115 107 -6 0
115 -107 13 0
115 107 6 0
-116 -107 -14 0
-116 107 -7 0
116 -107 14 0
116 107 7 0
-117 -107 -15 0
-117 107 -8 0
117 -107 15 0
117 107 8 0
-118 -107 -16 0
-118 107 -9 0
118 -107 16 0
118 107 9 0
-119 -107 -18 0
-119 107 -2 0
119 -107 18 0
119 107 2 0
-120 -107 -19 0
-120 107 -3 0
120 -107 19 0
120 107 3 0
-121 -107 -20 0
-121 107 -4 0
121 -107 20 0
121 107 4 0
-122 -107 -21 0
-122 107 -5 0
122 -107 21 0
122 107 5 0
-123 -107 -22 0
-123 107 -6 0
123 -107 22 0
123 107 6 0
-124 -107 -23 0
-124 107 -7 0
124 -107 23 0
124 107 7 0
-125 -107 -24 0
-125 107 -8 0
125 -107 24 0
125 107 8 0
-126 -107 -25 0
-126 107 -9 0
126 -107 25 0
126 107 9 0
-127 -18 0
-127 -19 0
127 18 19 0
-128 -20 0
-128 -21 0
128 20 21 0
-129 127 0
-129 128 0
129 -127 -128 0
-130 -22 0
-130 -23 0
130 22 23 0
-131 -24 0
-131 -25 0
131 24 25 0
-132 130 0
-132 131 0
132 -130 -131 0
-133 129 0
-133 132 0
133 -129 -132 0
-134 110 -18 0
-134 -110 18 0
134 110 18 0
134 -110 -18 0
-135 -19 -10 0
-135 19 10 0
135 -19 10 0
135 19 -10 0
-136 -134 0
-136 -135 0
136 134 135 0
-137 -20 -11 0
-137 20 11 0
137 -20 11 0
137 20 -11 0
-138 -21 -12 0
-138 21 12 0
138 -21 12 0
138 21 -12 0
-139 -137 0
-139 -138 0
139 137 138 0
-140 136 0
-140 139 0
140 -136 -139 0
-141 -22 -13 0
-141 22 13 0
141 -22 13 0
141 22 -13 0
-142 -23 -14 0
-142 23 14 0
142 -23 14 0
142 23 -14 0
-143 -141 0
-143 -142 0
143 141 142 0
-144 -24 -15 0
-144 24 15 0
144 -24 15 0
144 24 -15 0
-145 -25 -16 0
-145 25 16 0
145 -25 16 0
145 25 -16 0
-146 -144 0
-146 -145 0
146 144 145 0
-147 143 0
-147 146 0
147 -143 -146 0
-148 140 0
-148 147 0
148 -140 -147 0
-149 -133 0
-149 148 0
149 133 -148 0
-150 107 0
-150 -149 0
150 -107 149 0
-151 -26 0
-151 150 0
151 26 -150 0
152 -26 -149 0
153 -107 -152 0
154 10 -110 0
155 11 12 0
156 -154 -155 0
157 13 14 0
158 15 16 0
159 -157 -158 0
160 -156 -159 0
161 133 -160 0
-162 -153 0
-162 -161 0
-163 -27 0
-163 -28 0
-164 -29 0
-164 163 0
-165 -30 0
-165 164 0
-166 -31 0
-166 165 0
-167 -32 0
-167 166 0
-168 -33 0
-168 167 0
-169 -34 0
-169 168 0
-170 -20 0
-170 127 0
170 20 -127 0
-171 -21 0
-171 170 0
171 21 -170 0
-172 -22 0
-172 171 0
172 22 -171 0
-173 -23 0
-173 172 0
173 23 -172 0
-174 -24 0
-174 173 0
174 24 -173 0
-175 -25 0
-175 174 0
175 25 -174 0
-176 -10 0
-176 -11 0
-177 -12 0
-177 176 0
-178 -13 0
-178 177 0
-179 -14 0
-179 178 0
-180 -15 0
-180 179 0
-181 -16 0
-181 180 0
-182 -17 0
-182 181 0
-183 175 0
-183 182 0
-184 169 0
-184 183 0
-185 27 -25 0
-185 -27 -24 0
185 27 25 0
185 -27 24 0
-186 27 -23 0
-186 -27 -22 0
186 27 23 0
186 -27 22 0
-187 27 -21 0
-187 -27 -20 0
187 27 21 0
187 -27 20 0
-188 27 -22 0
-188 -27 -21 0
188 27 22 0
188 -27 21 0
-189 -188 187 0
-189 188 -187 0
189 -188 -187 0
189 188 187 0
-190 189 -186 0
-190 -189 186 0
190 189 186 0
190 -189 -186 0
-191 190 -185 0
-191 -190 185 0
191 190 185 0
191 -190 -185 0
-192 27 -19 0
-192 -27 -18 0
192 27 19 0
192 -27 18 0
-193 28 192 0
-193 -28 191 0
193 28 -192 0
193 -28 -191 0
-194 28 186 0
-194 -28 187 0
194 28 -186 0
194 -28 -187 0
-195 29 194 0
-195 -29 193 0
195 29 -194 0
195 -29 -193 0
-196 28 185 0
-196 -28 186 0
196 28 -185 0
196 -28 -186 0
-197 28 187 0
-197 -28 192 0
197 28 -187 0
197 -28 -192 0
-198 27 -20 0
-198 -27 -19 0
198 27 20 0
198 -27 19 0
-199 28 188 0
-199 -28 198 0
199 28 -188 0
199 -28 -198 0
-200 -199 197 0
-200 199 -197 0
200 -199 -197 0
200 199 197 0
-201 200 -194 0
-201 -200 194 0
201 200 194 0
201 -200 -194 0
-202 201 -196 0
-202 -201 196 0
202 201 196 0
202 -201 -196 0
-203 29 197 0
-203 -29 202 0
203 29 -197 0
203 -29 -202 0
-204 22 -21 0
-204 -22 21 0
204 22 21 0
204 -22 -21 0
-205 204 23 0
-205 -204 -23 0
205 204 -23 0
205 -204 23 0
-206 205 25 0
-206 -205 -25 0
206 205 -25 0
206 -205 25 0
-207 27 -18 0
-207 -27 206 0
207 27 18 0
207 -27 -206 0
-208 28 198 0
-208 -28 207 0
208 28 -198 0
208 -28 -207 0
-209 -208 193 0
-209 208 -193 0
209 -208 -193 0
209 208 193 0
-210 209 -197 0
-210 -209 197 0
210 209 197 0
210 -209 -197 0
-211 210 -194 0
-211 -210 194 0
211 210 194 0
211 -210 -194 0
-212 29 193 0
-212 -29 211 0
212 29 -193 0
212 -29 -211 0
-213 27 -24 0
-213 -27 -23 0
213 27 24 0
213 -27 23 0
-214 28 213 0
-214 -28 188 0
214 28 -213 0
214 -28 -188 0
-215 208 -197 0
-215 -208 197 0
215 208 197 0
215 -208 -197 0
-216 215 -199 0
-216 -215 199 0
216 215 199 0
216 -215 -199 0
-217 216 -214 0
-217 -216 214 0
217 216 214 0
217 -216 -214 0
-218 29 208 0
-218 -29 217 0
218 29 -208 0
218 -29 -217 0
-219 -218 212 0
-219 218 -212 0
219 -218 -212 0
219 218 212 0
-220 219 -203 0
-220 -219 203 0
220 219 203 0
220 -219 -203 0
-221 220 -195 0
-221 -220 195 0
221 220 195 0
221 -220 -195 0
-222 30 195 0
-222 -30 221 0
222 30 -195 0
222 -30 -221 0
-223 29 196 0
-223 -29 197 0
223 29 -196 0
223 -29 -197 0
-224 29 214 0
-224 -29 208 0
224 29 -214 0
224 -29 -208 0
-225 -224 203 0
-225 224 -203 0
225 -224 -203 0
225 224 203 0
-226 225 -223 0
-226 -225 223 0
226 225 223 0
226 -225 -223 0
-227 30 212 0
-227 -30 226 0
227 30 -212 0
227 -30 -226 0
-228 198 -187 0
-228 -198 187 0
228 198 187 0
228 -198 -187 0
-229 228 -188 0
-229 -228 188 0
229 228 188 0
229 -228 -188 0
-230 229 -213 0
-230 -229 213 0
230 229 213 0
230 -229 -213 0
-231 28 207 0
-231 -28 230 0
231 28 -207 0
231 -28 -230 0
-232 29 199 0
-232 -29 231 0
232 29 -199 0
232 -29 -231 0
-233 231 -193 0
-233 -231 193 0
233 231 193 0
233 -231 -193 0
-234 233 -208 0
-234 -233 208 0
234 233 208 0
234 -233 -208 0
-235 234 -199 0
-235 -234 199 0
235 234 199 0
235 -234 -199 0
-236 29 231 0
-236 -29 235 0
236 29 -231 0
236 -29 -235 0
-237 236 -212 0
-237 -236 212 0
237 236 212 0
237 -236 -212 0
-238 237 -218 0
-238 -237 218 0
238 237 218 0
238 -237 -218 0
-239 238 -232 0
-239 -238 232 0
239 238 232 0
239 -238 -232 0
-240 30 232 0
-240 -30 239 0
240 30 -232 0
240 -30 -239 0
-241 -240 227 0
-241 240 -227 0
241 -240 -227 0
241 240 227 0
-242 241 -222 0
-242 -241 222 0
242 241 222 0
242 -241 -222 0
-243 -232 203 0
-243 232 -203 0
243 -232 -203 0
243 232 203 0
-244 243 -195 0
-244 -243 195 0
244 243 195 0
244 -243 -195 0
-245 244 -223 0
-245 -244 223 0
245 244 223 0
245 -244 -223 0
-246 30 223 0
-246 -30 245 0
246 30 -223 0
246 -30 -245 0
-247 31 246 0
-247 -31 242 0
247 31 -246 0
247 -31 -242 0
-248 236 -195 0
-248 -236 195 0
248 236 195 0
248 -236 -195 0
-249 248 -224 0
-249 -248 224 0
249 248 224 0
249 -248 -224 0
-250 249 -223 0
-250 -249 223 0
250 249 223 0
250 -249 -223 0
-251 30 218 0
-251 -30 250 0
251 30 -218 0
251 -30 -250 0
-252 251 -240 0
-252 -251 240 0
252 251 240 0
252 -251 -240 0
-253 252 -222 0
-253 -252 222 0
253 252 222 0
253 -252 -222 0
-254 253 -246 0
-254 -253 246 0
254 253 246 0
254 -253 -246 0
-255 31 222 0
-255 -31 254 0
255 31 -222 0
255 -31 -254 0
-256 218 -203 0
-256 -218 203 0
256 218 203 0
256 -218 -203 0
-257 256 -232 0
-257 -256 232 0
257 256 232 0
257 -256 -232 0
-258 257 -224 0
-258 -257 224 0
258 257 224 0
258 -257 -224 0
-259 30 224 0
-259 -30 258 0
259 30 -224 0
259 -30 -258 0
-260 237 -232 0
-260 -237 232 0
260 237 232 0
260 -237 -232 0
-261 260 -195 0
-261 -260 195 0
261 260 195 0
261 -260 -195 0
-262 261 -223 0
-262 -261 223 0
262 261 223 0
262 -261 -223 0
-263 30 203 0
-263 -30 262 0
263 30 -203 0
263 -30 -262 0
-264 -263 227 0
-264 263 -227 0
264 -263 -227 0
264 263 227 0
-265 264 -240 0
-265 -264 240 0
265 264 240 0
265 -264 -240 0
-266 265 -259 0
-266 -265 259 0
266 265 259 0
266 -265 -259 0
-267 31 240 0
-267 -31 266 0
267 31 -240 0
267 -31 -266 0
-268 218 -195 0
-268 -218 195 0
268 218 195 0
268 -218 -195 0
-269 268 -224 0
-269 -268 224 0
269 268 224 0
269 -268 -224 0
-270 30 236 0
-270 -30 269 0
270 30 -236 0
270 -30 -269 0
-271 270 -227 0
-271 -270 227 0
271 270 227 0
271 -270 -227 0
-272 271 -240 0
-272 -271 240 0
272 271 240 0
272 -271 -240 0
-273 272 -246 0
-273 -272 246 0
273 272 246 0
273 -272 -246 0
-274 31 270 0
-274 -31 273 0
274 31 -270 0
274 -31 -273 0
-275 270 -251 0
-275 -270 251 0
275 270 251 0
275 -270 -251 0
-276 275 -263 0
-276 -275 263 0
276 275 263 0
276 -275 -263 0
-277 276 -222 0
-277 -276 222 0
277 276 222 0
277 -276 -222 0
-278 31 263 0
-278 -31 277 0
278 31 -263 0
278 -31 -277 0
-279 -278 274 0
-279 278 -274 0
279 -278 -274 0
279 278 274 0
-280 279 -267 0
-280 -279 267 0
280 279 267 0
280 -279 -267 0
-281 280 -255 0
-281 -280 255 0
281 280 255 0
281 -280 -255 0
-282 281 -247 0
-282 -281 247 0
282 281 247 0
282 -281 -247 0
-283 32 247 0
-283 -32 282 0
283 32 -247 0
283 -32 -282 0
-284 270 -263 0
-284 -270 263 0
284 270 263 0
284 -270 -263 0
-285 284 -240 0
-285 -284 240 0
285 284 240 0
285 -284 -240 0
-286 31 259 0
-286 -31 285 0
286 31 -259 0
286 -31 -285 0
-287 -251 227 0
-287 251 -227 0
287 -251 -227 0
287 251 227 0
-288 287 -263 0
-288 -287 263 0
288 287 263 0
288 -287 -263 0
-289 288 -222 0
-289 -288 222 0
289 288 222 0
289 -288 -222 0
-290 289 -246 0
-290 -289 246 0
290 289 246 0
290 -289 -246 0
-291 31 251 0
-291 -31 290 0
291 31 -251 0
291 -31 -290 0
-292 291 -255 0
-292 -291 255 0
292 291 255 0
292 -291 -255 0
-293 292 -286 0
-293 -292 286 0
293 292 286 0
293 -292 -286 0
-294 293 -247 0
-294 -293 247 0
294 293 247 0
294 -293 -247 0
-295 32 286 0
-295 -32 294 0
295 32 -286 0
295 -32 -294 0
-296 271 -251 0
-296 -271 251 0
296 271 251 0
296 -271 -251 0
-297 296 -240 0
-297 -296 240 0
297 296 240 0
297 -296 -240 0
-298 297 -259 0
-298 -297 259 0
298 297 259 0
298 -297 -259 0
-299 31 227 0
-299 -31 298 0
299 31 -227 0
299 -31 -298 0
-300 299 -267 0
-300 -299 267 0
300 299 267 0
300 -299 -267 0
-301 300 -255 0
-301 -300 255 0
301 300 255 0
301 -300 -255 0
-302 301 -286 0
-302 -301 286 0
302 301 286 0
302 -301 -286 0
-303 32 255 0
-303 -32 302 0
303 32 -255 0
303 -32 -302 0
-304 32 267 0
-304 -32 281 0
304 32 -267 0
304 -32 -281 0
-305 279 -255 0
-305 -279 255 0
305 279 255 0
305 -279 -255 0
-306 32 299 0
-306 -32 305 0
306 32 -299 0
306 -32 -305 0
-307 292 -247 0
-307 -292 247 0
307 292 247 0
307 -292 -247 0
-308 32 278 0
-308 -32 307 0
308 32 -278 0
308 -32 -307 0
-309 -308 306 0
-309 308 -306 0
309 -308 -306 0
309 308 306 0
-310 309 -304 0
-310 -309 304 0
310 309 304 0
310 -309 -304 0
-311 310 -303 0
-311 -310 303 0
311 310 303 0
311 -310 -303 0
-312 311 -295 0
-312 -311 295 0
312 311 295 0
312 -311 -295 0
-313 312 -283 0
-313 -312 283 0
313 312 283 0
313 -312 -283 0
-314 33 283 0
-314 -33 313 0
314 33 -283 0
314 -33 -313 0
-315 291 -278 0
-315 -291 278 0
315 291 278 0
315 -291 -278 0
-316 315 -255 0
-316 -315 255 0
316 315 255 0
316 -315 -255 0
-317 316 -247 0
-317 -316 247 0
317 316 247 0
317 -316 -247 0
-318 32 274 0
-318 -32 317 0
318 32 -274 0
318 -32 -317 0
-319 300 -286 0
-319 -300 286 0
319 300 286 0
319 -300 -286 0
-320 32 291 0
-320 -32 319 0
320 32 -291 0
320 -32 -319 0
-321 -320 318 0
-321 320 -318 0
321 -320 -318 0
321 320 318 0
-322 321 -308 0
-322 -321 308 0
322 321 308 0
322 -321 -308 0
-323 322 -304 0
-323 -322 304 0
323 322 304 0
323 -322 -304 0
-324 323 -303 0
-324 -323 303 0
324 323 303 0
324 -323 -303 0
-325 33 318 0
-325 -33 324 0
325 33 -318 0
325 -33 -324 0
-326 -320 306 0
-326 320 -306 0
326 -320 -306 0
326 320 306 0
-327 326 -283 0
-327 -326 283 0
327 326 283 0
327 -326 -283 0
-328 33 303 0
-328 -33 327 0
328 33 -303 0
328 -33 -327 0
-329 -328 325 0
-329 328 -325 0
329 -328 -325 0
329 328 325 0
-330 329 -314 0
-330 -329 314 0
330 329 314 0
330 -329 -314 0
-331 34 314 0
-331 -34 330 0
331 34 -314 0
331 -34 -330 0
-332 -331 -17 0
-332 331 17 0
-333 324 -295 0
-333 -324 295 0
333 324 295 0
333 -324 -295 0
-334 33 295 0
-334 -33 333 0
334 33 -295 0
334 -33 -333 0
-335 318 -308 0
-335 -318 308 0
335 318 308 0
335 -318 -308 0
-336 335 -304 0
-336 -335 304 0
336 335 304 0
336 -335 -304 0
-337 336 -283 0
-337 -336 283 0
337 336 283 0
337 -336 -283 0
-338 33 308 0
-338 -33 337 0
338 33 -308 0
338 -33 -337 0
-339 338 -328 0
-339 -338 328 0
339 338 328 0
339 -338 -328 0
-340 339 -334 0
-340 -339 334 0
340 339 334 0
340 -339 -334 0
-341 340 -314 0
-341 -340 314 0
341 340 314 0
341 -340 -314 0
-342 34 334 0
-342 -34 341 0
342 34 -334 0
342 -34 -341 0
-343 -342 -16 0
-343 342 16 0
-344 320 -304 0
-344 -320 304 0
344 320 304 0
344 -320 -304 0
-345 344 -303 0
-345 -344 303 0
345 344 303 0
345 -344 -303 0
-346 345 -295 0
-346 -345 295 0
346 345 295 0
346 -345 -295 0
-347 346 -283 0
-347 -346 283 0
347 346 283 0
347 -346 -283 0
-348 33 320 0
-348 -33 347 0
348 33 -320 0
348 -33 -347 0
-349 318 -306 0
-349 -318 306 0
349 318 306 0
349 -318 -306 0
-350 349 -295 0
-350 -349 295 0
350 349 295 0
350 -349 -295 0
-351 33 304 0
-351 -33 350 0
351 33 -304 0
351 -33 -350 0
-352 -351 348 0
-352 351 -348 0
352 -351 -348 0
352 351 348 0
-353 352 -328 0
-353 -352 328 0
353 352 328 0
353 -352 -328 0
-354 353 -334 0
-354 -353 334 0
354 353 334 0
354 -353 -334 0
-355 34 328 0
-355 -34 354 0
355 34 -328 0
355 -34 -354 0
-356 -355 -15 0
-356 355 15 0
-357 33 306 0
-357 -33 312 0
357 33 -306 0
357 -33 -312 0
-358 357 -338 0
-358 -357 338 0
358 357 338 0
358 -357 -338 0
-359 358 -351 0
-359 -358 351 0
359 358 351 0
359 -358 -351 0
-360 359 -328 0
-360 -359 328 0
360 359 328 0
360 -359 -328 0
-361 34 351 0
-361 -34 360 0
361 34 -351 0
361 -34 -360 0
-362 -361 -14 0
-362 361 14 0
-363 -348 325 0
-363 348 -325 0
363 -348 -325 0
363 348 325 0
-364 363 -338 0
-364 -363 338 0
364 363 338 0
364 -363 -338 0
-365 364 -351 0
-365 -364 351 0
365 364 351 0
365 -364 -351 0
-366 34 338 0
-366 -34 365 0
366 34 -338 0
366 -34 -365 0
-367 -366 -13 0
-367 366 13 0
-368 357 -348 0
-368 -357 348 0
368 357 348 0
368 -357 -348 0
-369 368 -351 0
-369 -368 351 0
369 368 351 0
369 -368 -351 0
-370 369 -328 0
-370 -369 328 0
370 369 328 0
370 -369 -328 0
-371 370 -314 0
-371 -370 314 0
371 370 314 0
371 -370 -314 0
-372 34 348 0
-372 -34 371 0
372 34 -348 0
372 -34 -371 0
-373 -372 -12 0
-373 372 12 0
-374 -357 325 0
-374 357 -325 0
374 -357 -325 0
374 357 325 0
-375 374 -338 0
-375 -374 338 0
375 374 338 0
375 -374 -338 0
-376 375 -351 0
-376 -375 351 0
376 375 351 0
376 -375 -351 0
-377 376 -334 0
-377 -376 334 0
377 376 334 0
377 -376 -334 0
-378 34 357 0
-378 -34 377 0
378 34 -357 0
378 -34 -377 0
-379 -378 -11 0
-379 378 11 0
-380 363 -351 0
-380 -363 351 0
380 363 351 0
380 -363 -351 0
-381 380 -314 0
-381 -380 314 0
381 380 314 0
381 -380 -314 0
-382 34 325 0
-382 -34 381 0
382 34 -325 0
382 -34 -381 0
-383 -382 -10 0
-383 382 10 0
-384 27 -26 0
-384 -27 26 0
-385 27 0
-385 28 0
385 -27 -28 0
-386 29 0
-386 385 0
386 -29 -385 0
-387 30 0
-387 386 0
387 -30 -386 0
-388 31 0
-388 387 0
388 -31 -387 0
-389 32 0
-389 388 0
389 -32 -388 0
-390 33 0
-390 389 0
390 -33 -389 0
391 -34 -390 0
-392 -175 0
-392 -391 0
-393 384 0
-393 392 0
-394 383 0
-394 393 0
-395 379 0
-395 394 0
-396 373 0
-396 395 0
-397 367 0
-397 396 0
-398 362 0
-398 397 0
-399 356 0
-399 398 0
-400 343 0
-400 399 0
-401 332 0
-401 400 0
402 184 401 0
-403 162 0
-403 -402 0
-404 1 0
-404 403 0
-405 -111 -43 0
-405 111 43 0
-406 1 0
-406 405 0
-407 -112 -44 0
-407 112 44 0
-408 406 0
-408 407 0
-409 -113 -45 0
-409 113 45 0
-410 408 0
-410 409 0
-411 -114 -46 0
-411 114 46 0
-412 410 0
-412 411 0
-413 -115 -47 0
-413 115 47 0
-414 412 0
-414 413 0
-415 -116 -48 0
-415 116 48 0
-416 414 0
-416 415 0
-417 -117 -49 0
-417 117 49 0
-418 416 0
-418 417 0
-419 -118 -50 0
-419 118 50 0
-420 418 0
-420 419 0
-421 -119 -51 0
-421 119 51 0
-422 420 0
-422 421 0
-423 -120 -52 0
-423 120 52 0
-424 422 0
-424 423 0
-425 -121 -53 0
-425 121 53 0
-426 424 0
-426 425 0
-427 -122 -54 0
-427 122 54 0
-428 426 0
-428 427 0
-429 -123 -55 0
-429 123 55 0
-430 428 0
-430 429 0
-431 -124 -56 0
-431 124 56 0
-432 430 0
-432 431 0
-433 -125 -57 0
-433 125 57 0
-434 432 0
-434 433 0
-435 -126 -58 0
-435 126 58 0
-436 434 0
-436 435 0
-437 151 -59 0
-437 -151 59 0
-438 436 0
-438 437 0
-439 25 -16 0
-439 -25 16 0
439 25 16 0
439 -25 -16 0
-440 24 -15 0
-440 -24 15 0
440 24 15 0
440 -24 -15 0
-441 23 -14 0
-441 -23 14 0
441 23 14 0
441 -23 -14 0
-442 22 -13 0
-442 -22 13 0
442 22 13 0
442 -22 -13 0
-443 21 -12 0
-443 -21 12 0
443 21 12 0
443 -21 -12 0
-444 20 -11 0
-444 -20 11 0
444 20 11 0
444 -20 -11 0
-445 19 -10 0
-445 -19 10 0
445 19 10 0
445 -19 -10 0
-446 14 -13 0
-446 -14 13 0
446 14 13 0
446 -14 -13 0
-447 446 15 0
-447 -446 -15 0
447 446 -15 0
447 -446 15 0
-448 447 17 0
-448 -447 -17 0
448 447 -17 0
448 -447 17 0
-449 448 18 0
-449 -448 -18 0
449 448 -18 0
449 -448 18 0
-450 -175 0
-450 449 0
450 175 -449 0
-451 445 0
-451 450 0
451 -445 -450 0
-452 444 0
-452 451 0
452 -444 -451 0
-453 443 0
-453 452 0
453 -443 -452 0
-454 442 0
-454 453 0
454 -442 -453 0
-455 441 0
-455 454 0
455 -441 -454 0
-456 440 0
-456 455 0
456 -440 -455 0
-457 439 0
-457 456 0
457 -439 -456 0
-458 -4 0
-458 101 0
458 4 -101 0
-459 -5 0
-459 458 0
459 5 -458 0
-460 -6 0
-460 459 0
460 6 -459 0
-461 -7 0
-461 460 0
461 7 -460 0
-462 -8 0
-462 461 0
462 8 -461 0
-463 -9 0
-463 462 0
463 9 -462 0
-464 -175 0
-464 463 0
464 175 -463 0
-465 -457 0
-465 464 0
465 457 -464 0
-466 -27 0
-466 465 0
466 27 -465 0
-467 466 -60 0
-467 -466 60 0
-468 438 0
-468 467 0
-469 -28 27 0
-469 28 -27 0
469 -28 -27 0
469 28 27 0
-470 465 0
-470 -469 0
470 -465 469 0
-471 470 -61 0
-471 -470 61 0
-472 468 0
-472 471 0
-473 385 -29 0
-473 -385 29 0
473 385 29 0
473 -385 -29 0
-474 465 0
-474 -473 0
474 -465 473 0
-475 474 -62 0
-475 -474 62 0
-476 472 0
-476 475 0
-477 386 -30 0
-477 -386 30 0
477 386 30 0
477 -386 -30 0
-478 465 0
-478 -477 0
478 -465 477 0
-479 478 -63 0
-479 -478 63 0
-480 476 0
-480 479 0
-481 387 -31 0
-481 -387 31 0
481 387 31 0
481 -387 -31 0
-482 465 0
-482 -481 0
482 -465 481 0
-483 482 -64 0
-483 -482 64 0
-484 480 0
-484 483 0
-485 388 -32 0
-485 -388 32 0
485 388 32 0
485 -388 -32 0
-486 465 0
-486 -485 0
486 -465 485 0
-487 486 -65 0
-487 -486 65 0
-488 484 0
-488 487 0
-489 389 -33 0
-489 -389 33 0
489 389 33 0
489 -389 -33 0
-490 465 0
-490 -489 0
490 -465 489 0
-491 490 -66 0
-491 -490 66 0
-492 488 0
-492 491 0
-493 390 -34 0
-493 -390 34 0
493 390 34 0
493 -390 -34 0
-494 465 0
-494 -493 0
494 -465 493 0
-495 494 -67 0
-495 -494 67 0
-496 492 0
-496 495 0
497 35 36 0
498 37 38 0
499 -497 -498 0
500 39 40 0
501 41 42 0
502 -500 -501 0
503 -499 -502 0
-504 -51 0
-504 -52 0
504 51 52 0
-505 -53 0
-505 -54 0
-506 504 0
-506 505 0
-507 -55 0
-507 -56 0
-508 -57 0
-508 -58 0
-509 507 0
-509 508 0
-510 506 0
-510 509 0
-511 -50 46 0
-511 50 -46 0
511 -50 -46 0
511 50 46 0
-512 511 47 0
-512 -511 -47 0
512 511 -47 0
512 -511 47 0
-513 512 48 0
-513 -512 -48 0
513 512 -48 0
513 -512 48 0
-514 513 -51 0
-514 -513 51 0
-515 -52 -43 0
-515 52 43 0
516 514 515 0
-517 -53 -44 0
-517 53 44 0
-518 -54 -45 0
-518 54 45 0
519 517 518 0
520 -516 -519 0
-521 -55 -46 0
-521 55 46 0
-522 -56 -47 0
-522 56 47 0
523 521 522 0
-524 -57 -48 0
-524 57 48 0
-525 -58 -49 0
-525 58 49 0
526 524 525 0
527 -523 -526 0
528 -520 -527 0
529 510 -528 0
530 -59 -529 0
531 -503 -530 0
532 43 -513 0
533 44 45 0
534 -532 -533 0
535 46 47 0
536 48 49 0
537 -535 -536 0
538 -534 -537 0
539 510 -538 0
-540 -531 0
-540 -539 0
-541 -60 0
-541 -61 0
-542 -62 0
-542 541 0
-543 -63 0
-543 542 0
-544 -64 0
-544 543 0
-545 -65 0
-545 544 0
-546 -66 0
-546 545 0
-547 -67 0
-547 546 0
-548 -53 0
-548 504 0
548 53 -504 0
-549 -54 0
-549 548 0
549 54 -548 0
-550 -55 0
-550 549 0
550 55 -549 0
-551 -56 0
-551 550 0
551 56 -550 0
-552 -57 0
-552 551 0
552 57 -551 0
-553 -58 0
-553 552 0
553 58 -552 0
-554 -43 0
-554 -44 0
-555 -45 0
-555 554 0
-556 -46 0
-556 555 0
-557 -47 0
-557 556 0
-558 -48 0
-558 557 0
-559 -49 0
-559 558 0
-560 -50 0
-560 559 0
-561 553 0
-561 560 0
-562 547 0
-562 561 0
-563 60 -58 0
-563 -60 -57 0
563 60 58 0
563 -60 57 0
-564 60 -56 0
-564 -60 -55 0
564 60 56 0
564 -60 55 0
-565 60 -54 0
-565 -60 -53 0
565 60 54 0
565 -60 53 0
-566 60 -55 0
-566 -60 -54 0
566 60 55 0
566 -60 54 0
-567 -566 565 0
-567 566 -565 0
567 -566 -565 0
567 566 565 0
-568 567 -564 0
-568 -567 564 0
568 567 564 0
568 -567 -564 0
-569 568 -563 0
-569 -568 563 0
569 568 563 0
569 -568 -563 0
-570 60 -52 0
-570 -60 -51 0
570 60 52 0
570 -60 51 0
-571 61 570 0
-571 -61 569 0
571 61 -570 0
571 -61 -569 0
-572 61 564 0
-572 -61 565 0
572 61 -564 0
572 -61 -565 0
-573 62 572 0
-573 -62 571 0
573 62 -572 0
573 -62 -571 0
-574 61 563 0
-574 -61 564 0
574 61 -563 0
574 -61 -564 0
-575 61 565 0
-575 -61 570 0
575 61 -565 0
575 -61 -570 0
-576 60 -53 0
-576 -60 -52 0
576 60 53 0
576 -60 52 0
-577 61 566 0
-577 -61 576 0
577 61 -566 0
577 -61 -576 0
-578 -577 575 0
-578 577 -575 0
578 -577 -575 0
578 577 575 0
-579 578 -572 0
-579 -578 572 0
579 578 572 0
579 -578 -572 0
-580 579 -574 0
-580 -579 574 0
580 579 574 0
580 -579 -574 0
-581 62 575 0
-581 -62 580 0
581 62 -575 0
581 -62 -580 0
-582 55 -54 0
-582 -55 54 0
582 55 54 0
582 -55 -54 0
-583 582 56 0
-583 -582 -56 0
583 582 -56 0
583 -582 56 0
-584 583 58 0
-584 -583 -58 0
584 583 -58 0
584 -583 58 0
-585 60 -51 0
-585 -60 584 0
585 60 51 0
585 -60 -584 0
-586 61 576 0
-586 -61 585 0
586 61 -576 0
586 -61 -585 0
-587 -586 571 0
-587 586 -571 0
587 -586 -571 0
587 586 571 0
-588 587 -575 0
-588 -587 575 0
588 587 575 0
588 -587 -575 0
-589 588 -572 0
-589 -588 572 0
589 588 572 0
589 -588 -572 0
-590 62 571 0
-590 -62 589 0
590 62 -571 0
590 -62 -589 0
-591 60 -57 0
-591 -60 -56 0
591 60 57 0
591 -60 56 0
-592 61 591 0
-592 -61 566 0
592 61 -591 0
592 -61 -566 0
-593 586 -575 0
-593 -586 575 0
593 586 575 0
593 -586 -575 0
-594 593 -577 0
-594 -593 577 0
594 593 577 0
594 -593 -577 0
-595 594 -592 0
-595 -594 592 0
595 594 592 0
595 -594 -592 0
-596 62 586 0
-596 -62 595 0
596 62 -586 0
596 -62 -595 0
-597 -596 590 0
-597 596 -590 0
597 -596 -590 0
597 596 590 0
-598 597 -581 0
-598 -597 581 0
598 597 581 0
598 -597 -581 0
-599 598 -573 0
-599 -598 573 0
599 598 573 0
599 -598 -573 0
-600 63 573 0
-600 -63 599 0
600 63 -573 0
600 -63 -599 0
-601 62 574 0
-601 -62 575 0
601 62 -574 0
601 -62 -575 0
-602 62 592 0
-602 -62 586 0
602 62 -592 0
602 -62 -586 0
-603 -602 581 0
-603 602 -581 0
603 -602 -581 0
603 602 581 0
-604 603 -601 0
-604 -603 601 0
604 603 601 0
604 -603 -601 0
-605 63 590 0
-605 -63 604 0
605 63 -590 0
605 -63 -604 0
-606 576 -565 0
-606 -576 565 0
606 576 565 0
606 -576 -565 0
-607 606 -566 0
-607 -606 566 0
607 606 566 0
607 -606 -566 0
-608 607 -591 0
-608 -607 591 0
608 607 591 0
608 -607 -591 0
-609 61 585 0
-609 -61 608 0
609 61 -585 0
609 -61 -608 0
-610 62 577 0
-610 -62 609 0
610 62 -577 0
610 -62 -609 0
-611 609 -571 0
-611 -609 571 0
611 609 571 0
611 -609 -571 0
-612 611 -586 0
-612 -611 586 0
612 611 586 0
612 -611 -586 0
-613 612 -577 0
-613 -612 577 0
613 612 577 0
613 -612 -577 0
-614 62 609 0
-614 -62 613 0
614 62 -609 0
614 -62 -613 0
-615 614 -590 0
-615 -614 590 0
615 614 590 0
615 -614 -590 0
-616 615 -596 0
-616 -615 596 0
616 615 596 0
616 -615 -596 0
-617 616 -610 0
-617 -616 610 0
617 616 610 0
617 -616 -610 0
-618 63 610 0
-618 -63 617 0
618 63 -610 0
618 -63 -617 0
-619 -618 605 0
-619 618 -605 0
619 -618 -605 0
619 618 605 0
-620 619 -600 0
-620 -619 600 0
620 619 600 0
620 -619 -600 0
-621 -610 581 0
-621 610 -581 0
621 -610 -581 0
621 610 581 0
-622 621 -573 0
-622 -621 573 0
622 621 573 0
622 -621 -573 0
-623 622 -601 0
-623 -622 601 0
623 622 601 0
623 -622 -601 0
-624 63 601 0
-624 -63 623 0
624 63 -601 0
624 -63 -623 0
-625 64 624 0
-625 -64 620 0
625 64 -624 0
625 -64 -620 0
-626 614 -573 0
-626 -614 573 0
626 614 573 0
626 -614 -573 0
-627 626 -602 0
-627 -626 602 0
627 626 602 0
627 -626 -602 0
-628 627 -601 0
-628 -627 601 0
628 627 601 0
628 -627 -601 0
-629 63 596 0
-629 -63 628 0
629 63 -596 0
629 -63 -628 0
-630 629 -618 0
-630 -629 618 0
630 629 618 0
630 -629 -618 0
-631 630 -600 0
-631 -630 600 0
631 630 600 0
631 -630 -600 0
-632 631 -624 0
-632 -631 624 0
632 631 624 0
632 -631 -624 0
-633 64 600 0
-633 -64 632 0
633 64 -600 0
633 -64 -632 0
-634 596 -581 0
-634 -596 581 0
634 596 581 0
634 -596 -581 0
-635 634 -610 0
-635 -634 610 0
635 634 610 0
635 -634 -610 0
-636 635 -602 0
-636 -635 602 0
636 635 602 0
636 -635 -602 0
-637 63 602 0
-637 -63 636 0
637 63 -602 0
637 -63 -636 0
-638 615 -610 0
-638 -615 610 0
638 615 610 0
638 -615 -610 0
-639 638 -573 0
-639 -638 573 0
639 638 573 0
639 -638 -573 0
-640 639 -601 0
-640 -639 601 0
640 639 601 0
640 -639 -601 0
-641 63 581 0
-641 -63 640 0
641 63 -581 0
641 -63 -640 0
-642 -641 605 0
-642 641 -605 0
642 -641 -605 0
642 641 605 0
-643 642 -618 0
-643 -642 618 0
643 642 618 0
643 -642 -618 0
-644 643 -637 0
-644 -643 637 0
644 643 637 0
644 -643 -637 0
-645 64 618 0
-645 -64 644 0
645 64 -618 0
645 -64 -644 0
-646 596 -573 0
-646 -596 573 0
646 596 573 0
646 -596 -573 0
-647 646 -602 0
-647 -646 602 0
647 646 602 0
647 -646 -602 0
-648 63 614 0
-648 -63 647 0
648 63 -614 0
648 -63 -647 0
-649 648 -605 0
-649 -648 605 0
649 648 605 0
649 -648 -605 0
-650 649 -618 0
-650 -649 618 0
650 649 618 0
650 -649 -618 0
-651 650 -624 0
-651 -650 624 0
651 650 624 0
651 -650 -624 0
-652 64 648 0
-652 -64 651 0
652 64 -648 0
652 -64 -651 0
-653 648 -629 0
-653 -648 629 0
653 648 629 0
653 -648 -629 0
-654 653 -641 0
-654 -653 641 0
654 653 641 0
654 -653 -641 0
-655 654 -600 0
-655 -654 600 0
655 654 600 0
655 -654 -600 0
-656 64 641 0
-656 -64 655 0
656 64 -641 0
656 -64 -655 0
-657 -656 652 0
-657 656 -652 0
657 -656 -652 0
657 656 652 0
-658 657 -645 0
-658 -657 645 0
658 657 645 0
658 -657 -645 0
-659 658 -633 0
-659 -658 633 0
659 658 633 0
659 -658 -633 0
-660 659 -625 0
-660 -659 625 0
660 659 625 0
660 -659 -625 0
-661 65 625 0
-661 -65 660 0
661 65 -625 0
661 -65 -660 0
-662 648 -641 0
-662 -648 641 0
662 648 641 0
662 -648 -641 0
-663 662 -618 0
-663 -662 618 0
663 662 618 0
663 -662 -618 0
-664 64 637 0
-664 -64 663 0
664 64 -637 0
664 -64 -663 0
-665 -629 605 0
-665 629 -605 0
665 -629 -605 0
665 629 605 0
-666 665 -641 0
-666 -665 641 0
666 665 641 0
666 -665 -641 0
-667 666 -600 0
-667 -666 600 0
667 666 600 0
667 -666 -600 0
-668 667 -624 0
-668 -667 624 0
668 667 624 0
668 -667 -624 0
-669 64 629 0
-669 -64 668 0
669 64 -629 0
669 -64 -668 0
-670 669 -633 0
-670 -669 633 0
670 669 633 0
670 -669 -633 0
-671 670 -664 0
-671 -670 664 0
671 670 664 0
671 -670 -664 0
-672 671 -625 0
-672 -671 625 0
672 671 625 0
672 -671 -625 0
-673 65 664 0
-673 -65 672 0
673 65 -664 0
673 -65 -672 0
-674 649 -629 0
-674 -649 629 0
674 649 629 0
674 -649 -629 0
-675 674 -618 0
-675 -674 618 0
675 674 618 0
675 -674 -618 0
-676 675 -637 0
-676 -675 637 0
676 675 637 0
676 -675 -637 0
-677 64 605 0
-677 -64 676 0
677 64 -605 0
677 -64 -676 0
-678 677 -645 0
-678 -677 645 0
678 677 645 0
678 -677 -645 0
-679 678 -633 0
-679 -678 633 0
679 678 633 0
679 -678 -633 0
-680 679 -664 0
-680 -679 664 0
680 679 664 0
680 -679 -664 0
-681 65 633 0
-681 -65 680 0
681 65 -633 0
681 -65 -680 0
-682 65 645 0
-682 -65 659 0
682 65 -645 0
682 -65 -659 0
-683 657 -633 0
-683 -657 633 0
683 657 633 0
683 -657 -633 0
-684 65 677 0
-684 -65 683 0
684 65 -677 0
684 -65 -683 0
-685 670 -625 0
-685 -670 625 0
685 670 625 0
685 -670 -625 0
-686 65 656 0
-686 -65 685 0
686 65 -656 0
686 -65 -685 0
-687 -686 684 0
-687 686 -684 0
687 -686 -684 0
687 686 684 0
-688 687 -682 0
-688 -687 682 0
688 687 682 0
688 -687 -682 0
-689 688 -681 0
-689 -688 681 0
689 688 681 0
689 -688 -681 0
-690 689 -673 0
-690 -689 673 0
690 689 673 0
690 -689 -673 0
-691 690 -661 0
-691 -690 661 0
691 690 661 0
691 -690 -661 0
-692 66 661 0
-692 -66 691 0
692 66 -661 0
692 -66 -691 0
-693 669 -656 0
-693 -669 656 0
693 669 656 0
693 -669 -656 0
-694 693 -633 0
-694 -693 633 0
694 693 633 0
694 -693 -633 0
-695 694 -625 0
-695 -694 625 0
695 694 625 0
695 -694 -625 0
-696 65 652 0
-696 -65 695 0
696 65 -652 0
696 -65 -695 0
-697 678 -664 0
-697 -678 664 0
697 678 664 0
697 -678 -664 0
-698 65 669 0
-698 -65 697 0
698 65 -669 0
698 -65 -697 0
-699 -698 696 0
-699 698 -696 0
699 -698 -696 0
699 698 696 0
-700 699 -686 0
-700 -699 686 0
700 699 686 0
700 -699 -686 0
-701 700 -682 0
-701 -700 682 0
701 700 682 0
701 -700 -682 0
-702 701 -681 0
-702 -701 681 0
702 701 681 0
702 -701 -681 0
-703 66 696 0
-703 -66 702 0
703 66 -696 0
703 -66 -702 0
-704 -698 684 0
-704 698 -684 0
704 -698 -684 0
704 698 684 0
-705 704 -661 0
-705 -704 661 0
705 704 661 0
705 -704 -661 0
-706 66 681 0
-706 -66 705 0
706 66 -681 0
706 -66 -705 0
-707 -706 703 0
-707 706 -703 0
707 -706 -703 0
707 706 703 0
-708 707 -692 0
-708 -707 692 0
708 707 692 0
708 -707 -692 0
-709 67 692 0
-709 -67 708 0
709 67 -692 0
709 -67 -708 0
-710 -709 -50 0
-710 709 50 0
-711 702 -673 0
-711 -702 673 0
711 702 673 0
711 -702 -673 0
-712 66 673 0
-712 -66 711 0
712 66 -673 0
712 -66 -711 0
-713 696 -686 0
-713 -696 686 0
713 696 686 0
713 -696 -686 0
-714 713 -682 0
-714 -713 682 0
714 713 682 0
714 -713 -682 0
-715 714 -661 0
-715 -714 661 0
715 714 661 0
715 -714 -661 0
-716 66 686 0
-716 -66 715 0
716 66 -686 0
716 -66 -715 0
-717 716 -706 0
-717 -716 706 0
717 716 706 0
717 -716 -706 0
-718 717 -712 0
-718 -717 712 0
718 717 712 0
718 -717 -712 0
-719 718 -692 0
-719 -718 692 0
719 718 692 0
719 -718 -692 0
-720 67 712 0
-720 -67 719 0
720 67 -712 0
720 -67 -719 0
-721 -720 -49 0
-721 720 49 0
-722 698 -682 0
-722 -698 682 0
722 698 682 0
722 -698 -682 0
-723 722 -681 0
-723 -722 681 0
723 722 681 0
723 -722 -681 0
-724 723 -673 0
-724 -723 673 0
724 723 673 0
724 -723 -673 0
-725 724 -661 0
-725 -724 661 0
725 724 661 0
725 -724 -661 0
-726 66 698 0
-726 -66 725 0
726 66 -698 0
726 -66 -725 0
-727 696 -684 0
-727 -696 684 0
727 696 684 0
727 -696 -684 0
-728 727 -673 0
-728 -727 673 0
728 727 673 0
728 -727 -673 0
-729 66 682 0
-729 -66 728 0
729 66 -682 0
729 -66 -728 0
-730 -729 726 0
-730 729 -726 0
730 -729 -726 0
730 729 726 0
-731 730 -706 0
-731 -730 706 0
731 730 706 0
731 -730 -706 0
-732 731 -712 0
-732 -731 712 0
732 731 712 0
732 -731 -712 0
-733 67 706 0
-733 -67 732 0
733 67 -706 0
733 -67 -732 0
-734 -733 -48 0
-734 733 48 0
-735 66 684 0
-735 -66 690 0
735 66 -684 0
735 -66 -690 0
-736 735 -716 0
-736 -735 716 0
736 735 716 0
736 -735 -716 0
-737 736 -729 0
-737 -736 729 0
737 736 729 0
737 -736 -729 0
-738 737 -706 0
-738 -737 706 0
738 737 706 0
738 -737 -706 0
-739 67 729 0
-739 -67 738 0
739 67 -729 0
739 -67 -738 0
-740 -739 -47 0
-740 739 47 0
-741 -726 703 0
-741 726 -703 0
741 -726 -703 0
741 726 703 0
-742 741 -716 0
-742 -741 716 0
742 741 716 0
742 -741 -716 0
-743 742 -729 0
-743 -742 729 0
743 742 729 0
743 -742 -729 0
-744 67 716 0
-744 -67 743 0
744 67 -716 0
744 -67 -743 0
-745 -744 -46 0
-745 744 46 0
-746 735 -726 0
-746 -735 726 0
746 735 726 0
746 -735 -726 0
-747 746 -729 0
-747 -746 729 0
747 746 729 0
747 -746 -729 0
-748 747 -706 0
-748 -747 706 0
748 747 706 0
748 -747 -706 0
-749 748 -692 0
-749 -748 692 0
749 748 692 0
749 -748 -692 0
-750 67 726 0
-750 -67 749 0
750 67 -726 0
750 -67 -749 0
-751 -750 -45 0
-751 750 45 0
-752 -735 703 0
-752 735 -703 0
752 -735 -703 0
752 735 703 0
-753 752 -716 0
-753 -752 716 0
753 752 716 0
753 -752 -716 0
-754 753 -729 0
-754 -753 729 0
754 753 729 0
754 -753 -729 0
-755 754 -712 0
-755 -754 712 0
755 754 712 0
755 -754 -712 0
-756 67 735 0
-756 -67 755 0
756 67 -735 0
756 -67 -755 0
-757 -756 -44 0
-757 756 44 0
-758 741 -729 0
-758 -741 729 0
758 741 729 0
758 -741 -729 0
-759 758 -692 0
-759 -758 692 0
759 758 692 0
759 -758 -692 0
-760 67 703 0
-760 -67 759 0
760 67 -703 0
760 -67 -759 0
-761 -760 -43 0
-761 760 43 0
-762 60 -59 0
-762 -60 59 0
763 -60 -61 0
764 -62 -763 0
765 -63 -764 0
766 -64 -765 0
767 -65 -766 0
768 -66 -767 0
769 -67 -768 0
-770 -553 0
-770 -769 0
-771 762 0
-771 770 0
-772 761 0
-772 771 0
-773 757 0
-773 772 0
-774 751 0
-774 773 0
-775 745 0
-775 774 0
-776 740 0
-776 775 0
-777 734 0
-777 776 0
-778 721 0
-778 777 0
-779 710 0
-779 778 0
780 562 779 0
-781 540 0
-781 -780 0
-782 1 0
-782 781 0
783 68 69 0
784 70 71 0
785 -783 -784 0
786 72 73 0
787 74 75 0
788 -786 -787 0
789 -785 -788 0
-790 -84 0
-790 -85 0
790 84 85 0
-791 -86 0
-791 -87 0
-792 790 0
-792 791 0
-793 -88 0
-793 -89 0
-794 -90 0
-794 -91 0
-795 793 0
-795 794 0
-796 792 0
-796 795 0
-797 -83 79 0
-797 83 -79 0
797 -83 -79 0
797 83 79 0
-798 797 80 0
-798 -797 -80 0
798 797 -80 0
798 -797 80 0
-799 798 81 0
-799 -798 -81 0
799 798 -81 0
799 -798 81 0
-800 799 -84 0
-800 -799 84 0
-801 -85 -76 0
-801 85 76 0
802 800 801 0
-803 -86 -77 0
-803 86 77 0
-804 -87 -78 0
-804 87 78 0
805 803 804 0
806 -802 -805 0
-807 -88 -79 0
-807 88 79 0
-808 -89 -80 0
-808 89 80 0
809 807 808 0
-810 -90 -81 0
-810 90 81 0
-811 -91 -82 0
-811 91 82 0
812 810 811 0
813 -809 -812 0
814 -806 -813 0
815 796 -814 0
816 -92 -815 0
817 -789 -816 0
818 76 -799 0
819 77 78 0
820 -818 -819 0
821 79 80 0
822 81 82 0
823 -821 -822 0
824 -820 -823 0
825 796 -824 0
-826 -817 0
-826 -825 0
-827 -93 0
-827 -94 0
-828 -95 0
-828 827 0
-829 -96 0
-829 828 0
-830 -97 0
-830 829 0
-831 -98 0
-831 830 0
-832 -99 0
-832 831 0
-833 -100 0
-833 832 0
-834 -86 0
-834 790 0
834 86 -790 0
-835 -87 0
-835 834 0
835 87 -834 0
-836 -88 0
-836 835 0
836 88 -835 0
-837 -89 0
-837 836 0
837 89 -836 0
-838 -90 0
-838 837 0
838 90 -837 0
-839 -91 0
-839 838 0
839 91 -838 0
-840 -76 0
-840 -77 0
-841 -78 0
-841 840 0
-842 -79 0
-842 841 0
-843 -80 0
-843 842 0
-844 -81 0
-844 843 0
-845 -82 0
-845 844 0
-846 -83 0
-846 845 0
-847 839 0
-847 846 0
-848 833 0
-848 847 0
-849 93 -91 0
-849 -93 -90 0
849 93 91 0
849 -93 90 0
-850 93 -89 0
-850 -93 -88 0
850 93 89 0
850 -93 88 0
-851 93 -87 0
-851 -93 -86 0
851 93 87 0
851 -93 86 0
-852 93 -88 0
-852 -93 -87 0
852 93 88 0
852 -93 87 0
-853 -852 851 0
-853 852 -851 0
853 -852 -851 0
853 852 851 0
-854 853 -850 0
-854 -853 850 0
854 853 850 0
854 -853 -850 0
-855 854 -849 0
-855 -854 849 0
855 854 849 0
855 -854 -849 0
-856 93 -85 0
-856 -93 -84 0
856 93 85 0
856 -93 84 0
-857 94 856 0
-857 -94 855 0
857 94 -856 0
857 -94 -855 0
-858 94 850 0
-858 -94 851 0
858 94 -850 0
858 -94 -851 0
-859 95 858 0
-859 -95 857 0
859 95 -858 0
859 -95 -857 0
-860 94 849 0
-860 -94 850 0
860 94 -849 0
860 -94 -850 0
-861 94 851 0
-861 -94 856 0
861 94 -851 0
861 -94 -856 0
-862 93 -86 0
-862 -93 -85 0
862 93 86 0
862 -93 85 0
-863 94 852 0
-863 -94 862 0
863 94 -852 0
863 -94 -862 0
-864 -863 861 0
-864 863 -861 0
864 -863 -861 0
864 863 861 0
-865 864 -858 0
-865 -864 858 0
865 864 858 0
865 -864 -858 0
-866 865 -860 0
-866 -865 860 0
866 865 860 0
866 -865 -860 0
-867 95 861 0
-867 -95 866 0
867 95 -861 0
867 -95 -866 0
-868 88 -87 0
-868 -88 87 0
868 88 87 0
868 -88 -87 0
-869 868 89 0
-869 -868 -89 0
869 868 -89 0
869 -868 89 0
-870 869 91 0
-870 -869 -91 0
870 869 -91 0
870 -869 91 0
-871 93 -84 0
-871 -93 870 0
871 93 84 0
871 -93 -870 0
-872 94 862 0
-872 -94 871 0
872 94 -862 0
872 -94 -871 0
-873 -872 857 0
-873 872 -857 0
873 -872 -857 0
873 872 857 0
-874 873 -861 0
-874 -873 861 0
874 873 861 0
874 -873 -861 0
-875 874 -858 0
-875 -874 858 0
875 874 858 0
875 -874 -858 0
-876 95 857 0
-876 -95 875 0
876 95 -857 0
876 -95 -875 0
-877 93 -90 0
-877 -93 -89 0
877 93 90 0
877 -93 89 0
-878 94 877 0
-878 -94 852 0
878 94 -877 0
878 -94 -852 0
-879 872 -861 0
-879 -872 861 0
879 872 861 0
879 -872 -861 0
-880 879 -863 0
-880 -879 863 0
880 879 863 0
880 -879 -863 0
-881 880 -878 0
-881 -880 878 0
881 880 878 0
881 -880 -878 0
-882 95 872 0
-882 -95 881 0
882 95 -872 0
882 -95 -881 0
-883 -882 876 0
-883 882 -876 0
883 -882 -876 0
883 882 876 0
-884 883 -867 0
-884 -883 867 0
884 883 867 0
884 -883 -867 0
-885 884 -859 0
-885 -884 859 0
885 884 859 0
885 -884 -859 0
-886 96 859 0
-886 -96 885 0
886 96 -859 0
886 -96 -885 0
-887 95 860 0
-887 -95 861 0
887 95 -860 0
887 -95 -861 0
-888 95 878 0
-888 -95 872 0
888 95 -878 0
888 -95 -872 0
-889 -888 867 0
-889 888 -867 0
889 -888 -867 0
889 888 867 0
-890 889 -887 0
-890 -889 887 0
890 889 887 0
890 -889 -887 0
-891 96 876 0
-891 -96 890 0
891 96 -876 0
891 -96 -890 0
-892 862 -851 0
-892 -862 851 0
892 862 851 0
892 -862 -851 0
-893 892 -852 0
-893 -892 852 0
893 892 852 0
893 -892 -852 0
-894 893 -877 0
-894 -893 877 0
894 893 877 0
894 -893 -877 0
-895 94 871 0
-895 -94 894 0
895 94 -871 0
895 -94 -894 0
-896 95 863 0
-896 -95 895 0
896 95 -863 0
896 -95 -895 0
-897 895 -857 0
-897 -895 857 0
897 895 857 0
897 -895 -857 0
-898 897 -872 0
-898 -897 872 0
898 897 872 0
898 -897 -872 0
-899 898 -863 0
-899 -898 863 0
899 898 863 0
899 -898 -863 0
-900 95 895 0
-900 -95 899 0
900 95 -895 0
900 -95 -899 0
-901 900 -876 0
-901 -900 876 0
901 900 876 0
901 -900 -876 0
-902 901 -882 0
-902 -901 882 0
902 901 882 0
902 -901 -882 0
-903 902 -896 0
-903 -902 896 0
903 902 896 0
903 -902 -896 0
-904 96 896 0
-904 -96 903 0
904 96 -896 0
904 -96 -903 0
-905 -904 891 0
-905 904 -891 0
905 -904 -891 0
905 904 891 0
-906 905 -886 0
-906 -905 886 0
906 905 886 0
906 -905 -886 0
-907 -896 867 0
-907 896 -867 0
907 -896 -867 0
907 896 867 0
-908 907 -859 0
-908 -907 859 0
908 907 859 0
908 -907 -859 0
-909 908 -887 0
-909 -908 887 0
909 908 887 0
909 -908 -887 0
-910 96 887 0
-910 -96 909 0
910 96 -887 0
910 -96 -909 0
-911 97 910 0
-911 -97 906 0
911 97 -910 0
911 -97 -906 0
-912 900 -859 0
-912 -900 859 0
912 900 859 0
912 -900 -859 0
-913 912 -888 0
-913 -912 888 0
913 912 888 0
913 -912 -888 0
-914 913 -887 0
-914 -913 887 0
914 913 887 0
914 -913 -887 0
-915 96 882 0
-915 -96 914 0
915 96 -882 0
915 -96 -914 0
-916 915 -904 0
-916 -915 904 0
916 915 904 0
916 -915 -904 0
-917 916 -886 0
-917 -916 886 0
917 916 886 0
917 -916 -886 0
-918 917 -910 0
-918 -917 910 0
918 917 910 0
918 -917 -910 0
-919 97 886 0
-919 -97 918 0
919 97 -886 0
919 -97 -918 0
-920 882 -867 0
-920 -882 867 0
920 882 867 0
920 -882 -867 0
-921 920 -896 0
-921 -920 896 0
921 920 896 0
921 -920 -896 0
-922 921 -888 0
-922 -921 888 0
922 921 888 0
922 -921 -888 0
-923 96 888 0
-923 -96 922 0
923 96 -888 0
923 -96 -922 0
-924 901 -896 0
-924 -901 896 0
924 901 896 0
924 -901 -896 0
-925 924 -859 0
-925 -924 859 0
925 924 859 0
925 -924 -859 0
-926 925 -887 0
-926 -925 887 0
926 925 887 0
926 -925 -887 0
-927 96 867 0
-927 -96 926 0
927 96 -867 0
927 -96 -926 0
-928 -927 891 0
-928 927 -891 0
928 -927 -891 0
928 927 891 0
-929 928 -904 0
-929 -928 904 0
929 928 904 0
929 -928 -904 0
-930 929 -923 0
-930 -929 923 0
930 929 923 0
930 -929 -923 0
-931 97 904 0
-931 -97 930 0
931 97 -904 0
931 -97 -930 0
-932 882 -859 0
-932 -882 859 0
932 882 859 0
932 -882 -859 0
-933 932 -888 0
-933 -932 888 0
933 932 888 0
933 -932 -888 0
-934 96 900 0
-934 -96 933 0
934 96 -900 0
934 -96 -933 0
-935 934 -891 0
-935 -934 891 0
935 934 891 0
935 -934 -891 0
-936 935 -904 0
-936 -935 904 0
936 935 904 0
936 -935 -904 0
-937 936 -910 0
-937 -936 910 0
937 936 910 0
937 -936 -910 0
-938 97 934 0
-938 -97 937 0
938 97 -934 0
938 -97 -937 0
-939 934 -915 0
-939 -934 915 0
939 934 915 0
939 -934 -915 0
-940 939 -927 0
-940 -939 927 0
940 939 927 0
940 -939 -927 0
-941 940 -886 0
-941 -940 886 0
941 940 886 0
941 -940 -886 0
-942 97 927 0
-942 -97 941 0
942 97 -927 0
942 -97 -941 0
-943 -942 938 0
-943 942 -938 0
943 -942 -938 0
943 942 938 0
-944 943 -931 0
-944 -943 931 0
944 943 931 0
944 -943 -931 0
-945 944 -919 0
-945 -944 919 0
945 944 919 0
945 -944 -919 0
-946 945 -911 0
-946 -945 911 0
946 945 911 0
946 -945 -911 0
-947 98 911 0
-947 -98 946 0
947 98 -911 0
947 -98 -946 0
-948 934 -927 0
-948 -934 927 0
948 934 927 0
948 -934 -927 0
-949 948 -904 0
-949 -948 904 0
949 948 904 0
949 -948 -904 0
-950 97 923 0
-950 -97 949 0
950 97 -923 0
950 -97 -949 0
-951 -915 891 0
-951 915 -891 0
951 -915 -891 0
951 915 891 0
-952 951 -927 0
-952 -951 927 0
952 951 927 0
952 -951 -927 0
-953 952 -886 0
-953 -952 886 0
953 952 886 0
953 -952 -886 0
-954 953 -910 0
-954 -953 910 0
954 953 910 0
954 -953 -910 0
-955 97 915 0
-955 -97 954 0
955 97 -915 0
955 -97 -954 0
-956 955 -919 0
-956 -955 919 0
956 955 919 0
956 -955 -919 0
-957 956 -950 0
-957 -956 950 0
957 956 950 0
957 -956 -950 0
-958 957 -911 0
-958 -957 911 0
958 957 911 0
958 -957 -911 0
-959 98 950 0
-959 -98 958 0
959 98 -950 0
959 -98 -958 0
-960 935 -915 0
-960 -935 915 0
960 935 915 0
960 -935 -915 0
-961 960 -904 0
-961 -960 904 0
961 960 904 0
961 -960 -904 0
-962 961 -923 0
-962 -961 923 0
962 961 923 0
962 -961 -923 0
-963 97 891 0
-963 -97 962 0
963 97 -891 0
963 -97 -962 0
-964 963 -931 0
-964 -963 931 0
964 963 931 0
964 -963 -931 0
-965 964 -919 0
-965 -964 919 0
965 964 919 0
965 -964 -919 0
-966 965 -950 0
-966 -965 950 0
966 965 950 0
966 -965 -950 0
-967 98 919 0
-967 -98 966 0
967 98 -919 0
967 -98 -966 0
-968 98 931 0
-968 -98 945 0
968 98 -931 0
968 -98 -945 0
-969 943 -919 0
-969 -943 919 0
969 943 919 0
969 -943 -919 0
-970 98 963 0
-970 -98 969 0
970 98 -963 0
970 -98 -969 0
-971 956 -911 0
-971 -956 911 0
971 956 911 0
971 -956 -911 0
-972 98 942 0
-972 -98 971 0
972 98 -942 0
972 -98 -971 0
-973 -972 970 0
-973 972 -970 0
973 -972 -970 0
973 972 970 0
-974 973 -968 0
-974 -973 968 0
974 973 968 0
974 -973 -968 0
-975 974 -967 0
-975 -974 967 0
975 974 967 0
975 -974 -967 0
-976 975 -959 0
-976 -975 959 0
976 975 959 0
976 -975 -959 0
-977 976 -947 0
-977 -976 947 0
977 976 947 0
977 -976 -947 0
-978 99 947 0
-978 -99 977 0
978 99 -947 0
978 -99 -977 0
-979 955 -942 0
-979 -955 942 0
979 955 942 0
979 -955 -942 0
-980 979 -919 0
-980 -979 919 0
980 979 919 0
980 -979 -919 0
-981 980 -911 0
-981 -980 911 0
981 980 911 0
981 -980 -911 0
-982 98 938 0
-982 -98 981 0
982 98 -938 0
982 -98 -981 0
-983 964 -950 0
-983 -964 950 0
983 964 950 0
983 -964 -950 0
-984 98 955 0
-984 -98 983 0
984 98 -955 0
984 -98 -983 0
-985 -984 982 0
-985 984 -982 0
985 -984 -982 0
985 984 982 0
-986 985 -972 0
-986 -985 972 0
986 985 972 0
986 -985 -972 0
-987 986 -968 0
-987 -986 968 0
987 986 968 0
987 -986 -968 0
-988 987 -967 0
-988 -987 967 0
988 987 967 0
988 -987 -967 0
-989 99 982 0
-989 -99 988 0
989 99 -982 0
989 -99 -988 0
-990 -984 970 0
-990 984 -970 0
990 -984 -970 0
990 984 970 0
-991 990 -947 0
-991 -990 947 0
991 990 947 0
991 -990 -947 0
-992 99 967 0
-992 -99 991 0
992 99 -967 0
992 -99 -991 0
-993 -992 989 0
-993 992 -989 0
993 -992 -989 0
993 992 989 0
-994 993 -978 0
-994 -993 978 0
994 993 978 0
994 -993 -978 0
-995 100 978 0
-995 -100 994 0
995 100 -978 0
995 -100 -994 0
-996 -995 -83 0
-996 995 83 0
-997 988 -959 0
-997 -988 959 0
997 988 959 0
997 -988 -959 0
-998 99 959 0
-998 -99 997 0
998 99 -959 0
998 -99 -997 0
-999 982 -972 0
-999 -982 972 0
999 982 972 0
999 -982 -972 0
-1000 999 -968 0
-1000 -999 968 0
1000 999 968 0
1000 -999 -968 0
-1001 1000 -947 0
-1001 -1000 947 0
1001 1000 947 0
1001 -1000 -947 0
-1002 99 972 0
-1002 -99 1001 0
1002 99 -972 0
1002 -99 -1001 0
-1003 1002 -992 0
-1003 -1002 992 0
1003 1002 992 0
1003 -1002 -992 0
-1004 1003 -998 0
-1004 -1003 998 0
1004 1003 998 0
1004 -1003 -998 0
-1005 1004 -978 0
-1005 -1004 978 0
1005 1004 978 0
1005 -1004 -978 0
-1006 100 998 0
-1006 -100 1005 0
1006 100 -998 0
1006 -100 -1005 0
-1007 -1006 -82 0
-1007 1006 82 0
-1008 984 -968 0
-1008 -984 968 0
1008 984 968 0
1008 -984 -968 0
-1009 1008 -967 0
-1009 -1008 967 0
1009 1008 967 0
1009 -1008 -967 0
-1010 1009 -959 0
-1010 -1009 959 0
1010 1009 959 0
1010 -1009 -959 0
-1011 1010 -947 0
-1011 -1010 947 0
1011 1010 947 0
1011 -1010 -947 0
-1012 99 984 0
-1012 -99 1011 0
1012 99 -984 0
1012 -99 -1011 0
-1013 982 -970 0
-1013 -982 970 0
1013 982 970 0
1013 -982 -970 0
-1014 1013 -959 0
-1014 -1013 959 0
1014 1013 959 0
1014 -1013 -959 0
-1015 99 968 0
-1015 -99 1014 0
1015 99 -968 0
1015 -99 -1014 0
-1016 -1015 1012 0
-1016 1015 -1012 0
1016 -1015 -1012 0
1016 1015 1012 0
-1017 1016 -992 0
-1017 -1016 992 0
1017 1016 992 0
1017 -1016 -992 0
-1018 1017 -998 0
-1018 -1017 998 0
1018 1017 998 0
1018 -1017 -998 0
-1019 100 992 0
-1019 -100 1018 0
1019 100 -992 0
1019 -100 -1018 0
-1020 -1019 -81 0
-1020 1019 81 0
-1021 99 970 0
-1021 -99 976 0
1021 99 -970 0
1021 -99 -976 0
-1022 1021 -1002 0
-1022 -1021 1002 0
1022 1021 1002 0
1022 -1021 -1002 0
-1023 1022 -1015 0
-1023 -1022 1015 0
1023 1022 1015 0
1023 -1022 -1015 0
-1024 1023 -992 0
-1024 -1023 992 0
1024 1023 992 0
1024 -1023 -992 0
-1025 100 1015 0
-1025 -100 1024 0
1025 100 -1015 0
1025 -100 -1024 0
-1026 -1025 -80 0
-1026 1025 80 0
-1027 -1012 989 0
-1027 1012 -989 0
1027 -1012 -989 0
1027 1012 989 0
-1028 1027 -1002 0
-1028 -1027 1002 0
1028 1027 1002 0
1028 -1027 -1002 0
-1029 1028 -1015 0
-1029 -1028 1015 0
1029 1028 1015 0
1029 -1028 -1015 0
-1030 100 1002 0
-1030 -100 1029 0
1030 100 -1002 0
1030 -100 -1029 0
-1031 -1030 -79 0
-1031 1030 79 0
-1032 1021 -1012 0
-1032 -1021 1012 0
1032 1021 1012 0
1032 -1021 -1012 0
-1033 1032 -1015 0
-1033 -1032 1015 0
1033 1032 1015 0
1033 -1032 -1015 0
-1034 1033 -992 0
-1034 -1033 992 0
1034 1033 992 0
1034 -1033 -992 0
-1035 1034 -978 0
-1035 -1034 978 0
1035 1034 978 0
1035 -1034 -978 0
-1036 100 1012 0
-1036 -100 1035 0
1036 100 -1012 0
1036 -100 -1035 0
-1037 -1036 -78 0
-1037 1036 78 0
-1038 -1021 989 0
-1038 1021 -989 0
1038 -1021 -989 0
1038 1021 989 0
-1039 1038 -1002 0
-1039 -1038 1002 0
1039 1038 1002 0
1039 -1038 -1002 0
-1040 1039 -1015 0
-1040 -1039 1015 0
1040 1039 1015 0
1040 -1039 -1015 0
-1041 1040 -998 0
-1041 -1040 998 0
1041 1040 998 0
1041 -1040 -998 0
-1042 100 1021 0
-1042 -100 1041 0
1042 100 -1021 0
1042 -100 -1041 0
-1043 -1042 -77 0
-1043 1042 77 0
-1044 1027 -1015 0
-1044 -1027 1015 0
1044 1027 1015 0
1044 -1027 -1015 0
-1045 1044 -978 0
-1045 -1044 978 0
1045 1044 978 0
1045 -1044 -978 0
-1046 100 989 0
-1046 -100 1045 0
1046 100 -989 0
1046 -100 -1045 0
-1047 -1046 -76 0
-1047 1046 76 0
-1048 93 -92 0
-1048 -93 92 0
1049 -93 -94 0
1050 -95 -1049 0
1051 -96 -1050 0
1052 -97 -1051 0
1053 -98 -1052 0
1054 -99 -1053 0
1055 -100 -1054 0
-1056 -839 0
-1056 -1055 0
-1057 1048 0
-1057 1056 0
-1058 1047 0
-1058 1057 0
-1059 1043 0
-1059 1058 0
-1060 1037 0
-1060 1059 0
-1061 1031 0
-1061 1060 0
-1062 1026 0
-1062 1061 0
-1063 1020 0
-1063 1062 0
-1064 1007 0
-1064 1063 0
-1065 996 0
-1065 1064 0
1066 848 1065 0
-1067 826 0
-1067 -1066 0
-1068 1 0
-1068 1067 0
-1069 1 0
-1069 1 0
-1070 404 0
-1070 1069 0
-1071 1 0
-1071 1070 0
-1072 782 0
-1072 1071 0
-1073 1 0
-1073 1072 0
-1074 1068 0
-1074 1073 0
-1075 496 0
-1075 1074 0
-1076 1 0
-1076 1075 0
-1077 -1 0
-1077 1076 0
1077 0
