p cnf 753 2254
1 0
-68 -2 0
-68 -3 0
68 2 3 0
-69 -4 0
-69 -5 0
69 4 5 0
-70 68 0
-70 69 0
70 -68 -69 0
-71 -6 0
-71 -7 0
71 6 7 0
-72 -8 0
-72 -9 0
72 8 9 0
-73 71 0
-73 72 0
73 -71 -72 0
-74 70 0
-74 73 0
74 -70 -73 0
-75 -17 13 0
-75 17 -13 0
75 -17 -13 0
75 17 13 0
-76 75 14 0
-76 -75 -14 0
76 75 -14 0
76 -75 14 0
-77 76 15 0
-77 -76 -15 0
77 76 -15 0
77 -76 15 0
-78 -74 77 0
-78 74 -2 0
78 -74 -77 0
78 74 2 0
-79 -74 -10 0
-79 74 -3 0
79 -74 10 0
79 74 3 0
-80 -74 -11 0
-80 74 -4 0
80 -74 11 0
80 74 4 0
-81 -74 -12 0
-81 74 -5 0
81 -74 12 0
81 74 5 0
-82 -74 -13 0
-82 74 -6 0
82 -74 13 0
82 74 6 0
-83 -74 -14 0
-83 74 -7 0
83 -74 14 0
83 74 7 0
-84 -74 -15 0
-84 74 -8 0
84 -74 15 0
84 74 8 0
-85 -74 -16 0
-85 74 -9 0
85 -74 16 0
85 74 9 0
-86 -74 -18 0
-86 74 -2 0
86 -74 18 0
86 74 2 0
-87 -74 -19 0
-87 74 -3 0
87 -74 19 0
87 74 3 0
-88 -74 -20 0
-88 74 -4 0
88 -74 20 0
88 74 4 0
-89 -74 -21 0
-89 74 -5 0
89 -74 21 0
89 74 5 0
-90 -74 -22 0
-90 74 -6 0
90 -74 22 0
90 74 6 0
-91 -74 -23 0
-91 74 -7 0
91 -74 23 0
91 74 7 0
-92 -74 -24 0
-92 74 -8 0
92 -74 24 0
92 74 8 0
-93 -74 -25 0
-93 74 -9 0
93 -74 25 0
93 74 9 0
-94 -18 0
-94 -19 0
94 18 19 0
-95 -20 0
-95 -21 0
95 20 21 0
-96 94 0
-96 95 0
96 -94 -95 0
-97 -22 0
-97 -23 0
97 22 23 0
-98 -24 0
-98 -25 0
98 24 25 0
-99 97 0
-99 98 0
99 -97 -98 0
-100 96 0
-100 99 0
100 -96 -99 0
-101 77 -18 0
-101 -77 18 0
101 77 18 0
101 -77 -18 0
-102 -19 -10 0
-102 19 10 0
102 -19 10 0
102 19 -10 0
-103 -101 0
-103 -102 0
103 101 102 0
-104 -20 -11 0
-104 20 11 0
104 -20 11 0
104 20 -11 0
-105 -21 -12 0
-105 21 12 0
105 -21 12 0
105 21 -12 0
-106 -104 0
-106 -105 0
106 104 105 0
-107 103 0
-107 106 0
107 -103 -106 0
-108 -22 -13 0
-108 22 13 0
108 -22 13 0
108 22 -13 0
-109 -23 -14 0
-109 23 14 0
109 -23 14 0
109 23 -14 0
-110 -108 0
-110 -109 0
110 108 109 0
-111 -24 -15 0
-111 24 15 0
111 -24 15 0
111 24 -15 0
-112 -25 -16 0
-112 25 16 0
112 -25 16 0
112 25 -16 0
-113 -111 0
-113 -112 0
113 111 112 0
-114 110 0
-114 113 0
114 -110 -113 0
-115 107 0
-115 114 0
115 -107 -114 0
-116 -100 0
-116 115 0
116 100 -115 0
-117 74 0
-117 -116 0
117 -74 116 0
-118 -26 0
-118 117 0
118 26 -117 0
119 -26 -116 0
120 -74 -119 0
121 10 -77 0
122 11 12 0
123 -121 -122 0
124 13 14 0
125 15 16 0
126 -124 -125 0
127 -123 -126 0
128 100 -127 0
-129 -120 0
-129 -128 0
-130 -27 0
-130 -28 0
-131 -29 0
-131 130 0
-132 -30 0
-132 131 0
-133 -31 0
-133 132 0
-134 -32 0
-134 133 0
-135 -33 0
-135 134 0
-136 -34 0
-136 135 0
-137 -20 0
-137 94 0
137 20 -94 0
-138 -21 0
-138 137 0
138 21 -137 0
-139 -22 0
-139 138 0
139 22 -138 0
-140 -23 0
-140 139 0
140 23 -139 0
-141 -24 0
-141 140 0
141 24 -140 0
-142 -25 0
-142 141 0
142 25 -141 0
-143 -10 0
-143 -11 0
-144 -12 0
-144 143 0
-145 -13 0
-145 144 0
-146 -14 0
-146 145 0
-147 -15 0
-147 146 0
-148 -16 0
-148 147 0
-149 -17 0
-149 148 0
-150 142 0
-150 149 0
-151 136 0
-151 150 0
-152 27 -25 0
-152 -27 -24 0
152 27 25 0
152 -27 24 0
-153 27 -23 0
-153 -27 -22 0
153 27 23 0
153 -27 22 0
-154 27 -21 0
-154 -27 -20 0
154 27 21 0
154 -27 20 0
-155 27 -22 0
-155 -27 -21 0
155 27 22 0
155 -27 21 0
-156 -155 154 0
-156 155 -154 0
156 -155 -154 0
156 155 154 0
-157 156 -153 0
-157 -156 153 0
157 156 153 0
157 -156 -153 0
-158 157 -152 0
-158 -157 152 0
158 157 152 0
158 -157 -152 0
-159 27 -19 0
-159 -27 -18 0
159 27 19 0
159 -27 18 0
-160 28 159 0
-160 -28 158 0
160 28 -159 0
160 -28 -158 0
-161 28 153 0
-161 -28 154 0
161 28 -153 0
161 -28 -154 0
-162 29 161 0
-162 -29 160 0
162 29 -161 0
162 -29 -160 0
-163 28 152 0
-163 -28 153 0
163 28 -152 0
163 -28 -153 0
-164 28 154 0
-164 -28 159 0
164 28 -154 0
164 -28 -159 0
-165 27 -20 0
-165 -27 -19 0
165 27 20 0
165 -27 19 0
-166 28 155 0
-166 -28 165 0
166 28 -155 0
166 -28 -165 0
-167 -166 164 0
-167 166 -164 0
167 -166 -164 0
167 166 164 0
-168 167 -161 0
-168 -167 161 0
168 167 161 0
168 -167 -161 0
-169 168 -163 0
-169 -168 163 0
169 168 163 0
169 -168 -163 0
-170 29 164 0
-170 -29 169 0
170 29 -164 0
170 -29 -169 0
-171 22 -21 0
-171 -22 21 0
171 22 21 0
171 -22 -21 0
-172 171 23 0
-172 -171 -23 0
172 171 -23 0
172 -171 23 0
-173 172 25 0
-173 -172 -25 0
173 172 -25 0
173 -172 25 0
-174 27 -18 0
-174 -27 173 0
174 27 18 0
174 -27 -173 0
-175 28 165 0
-175 -28 174 0
175 28 -165 0
175 -28 -174 0
-176 -175 160 0
-176 175 -160 0
176 -175 -160 0
176 175 160 0
-177 176 -164 0
-177 -176 164 0
177 176 164 0
177 -176 -164 0
-178 177 -161 0
-178 -177 161 0
178 177 161 0
178 -177 -161 0
-179 29 160 0
-179 -29 178 0
179 29 -160 0
179 -29 -178 0
-180 27 -24 0
-180 -27 -23 0
180 27 24 0
180 -27 23 0
-181 28 180 0
-181 -28 155 0
181 28 -180 0
181 -28 -155 0
-182 175 -164 0
-182 -175 164 0
182 175 164 0
182 -175 -164 0
-183 182 -166 0
-183 -182 166 0
183 182 166 0
183 -182 -166 0
-184 183 -181 0
-184 -183 181 0
184 183 181 0
184 -183 -181 0
-185 29 175 0
-185 -29 184 0
185 29 -175 0
185 -29 -184 0
-186 -185 179 0
-186 185 -179 0
186 -185 -179 0
186 185 179 0
-187 186 -170 0
-187 -186 170 0
187 186 170 0
187 -186 -170 0
-188 187 -162 0
-188 -187 162 0
188 187 162 0
188 -187 -162 0
-189 30 162 0
-189 -30 188 0
189 30 -162 0
189 -30 -188 0
-190 29 163 0
-190 -29 164 0
190 29 -163 0
190 -29 -164 0
-191 29 181 0
-191 -29 175 0
191 29 -181 0
191 -29 -175 0
-192 -191 170 0
-192 191 -170 0
192 -191 -170 0
192 191 170 0
-193 192 -190 0
-193 -192 190 0
193 192 190 0
193 -192 -190 0
-194 30 179 0
-194 -30 193 0
194 30 -179 0
194 -30 -193 0
-195 165 -154 0
-195 -165 154 0
195 165 154 0
195 -165 -154 0
-196 195 -155 0
-196 -195 155 0
196 195 155 0
196 -195 -155 0
-197 196 -180 0
-197 -196 180 0
197 196 180 0
197 -196 -180 0
-198 28 174 0
-198 -28 197 0
198 28 -174 0
198 -28 -197 0
-199 29 166 0
-199 -29 198 0
199 29 -166 0
199 -29 -198 0
-200 198 -160 0
-200 -198 160 0
200 198 160 0
200 -198 -160 0
-201 200 -175 0
-201 -200 175 0
201 200 175 0
201 -200 -175 0
-202 201 -166 0
-202 -201 166 0
202 201 166 0
202 -201 -166 0
-203 29 198 0
-203 -29 202 0
203 29 -198 0
203 -29 -202 0
-204 203 -179 0
-204 -203 179 0
204 203 179 0
204 -203 -179 0
-205 204 -185 0
-205 -204 185 0
205 204 185 0
205 -204 -185 0
-206 205 -199 0
-206 -205 199 0
206 205 199 0
206 -205 -199 0
-207 30 199 0
-207 -30 206 0
207 30 -199 0
207 -30 -206 0
-208 -207 194 0
-208 207 -194 0
208 -207 -194 0
208 207 194 0
-209 208 -189 0
-209 -208 189 0
209 208 189 0
209 -208 -189 0
-210 -199 170 0
-210 199 -170 0
210 -199 -170 0
210 199 170 0
-211 210 -162 0
-211 -210 162 0
211 210 162 0
211 -210 -162 0
-212 211 -190 0
-212 -211 190 0
212 211 190 0
212 -211 -190 0
-213 30 190 0
-213 -30 212 0
213 30 -190 0
213 -30 -212 0
-214 31 213 0
-214 -31 209 0
214 31 -213 0
214 -31 -209 0
-215 203 -162 0
-215 -203 162 0
215 203 162 0
215 -203 -162 0
-216 215 -191 0
-216 -215 191 0
216 215 191 0
216 -215 -191 0
-217 216 -190 0
-217 -216 190 0
217 216 190 0
217 -216 -190 0
-218 30 185 0
-218 -30 217 0
218 30 -185 0
218 -30 -217 0
-219 218 -207 0
-219 -218 207 0
219 218 207 0
219 -218 -207 0
-220 219 -189 0
-220 -219 189 0
220 219 189 0
220 -219 -189 0
-221 220 -213 0
-221 -220 213 0
221 220 213 0
221 -220 -213 0
-222 31 189 0
-222 -31 221 0
222 31 -189 0
222 -31 -221 0
-223 185 -170 0
-223 -185 170 0
223 185 170 0
223 -185 -170 0
-224 223 -199 0
-224 -223 199 0
224 223 199 0
224 -223 -199 0
-225 224 -191 0
-225 -224 191 0
225 224 191 0
225 -224 -191 0
-226 30 191 0
-226 -30 225 0
226 30 -191 0
226 -30 -225 0
-227 204 -199 0
-227 -204 199 0
227 204 199 0
227 -204 -199 0
-228 227 -162 0
-228 -227 162 0
228 227 162 0
228 -227 -162 0
-229 228 -190 0
-229 -228 190 0
229 228 190 0
229 -228 -190 0
-230 30 170 0
-230 -30 229 0
230 30 -170 0
230 -30 -229 0
-231 -230 194 0
-231 230 -194 0
231 -230 -194 0
231 230 194 0
-232 231 -207 0
-232 -231 207 0
232 231 207 0
232 -231 -207 0
-233 232 -226 0
-233 -232 226 0
233 232 226 0
233 -232 -226 0
-234 31 207 0
-234 -31 233 0
234 31 -207 0
234 -31 -233 0
-235 185 -162 0
-235 -185 162 0
235 185 162 0
235 -185 -162 0
-236 235 -191 0
-236 -235 191 0
236 235 191 0
236 -235 -191 0
-237 30 203 0
-237 -30 236 0
237 30 -203 0
237 -30 -236 0
-238 237 -194 0
-238 -237 194 0
238 237 194 0
238 -237 -194 0
-239 238 -207 0
-239 -238 207 0
239 238 207 0
239 -238 -207 0
-240 239 -213 0
-240 -239 213 0
240 239 213 0
240 -239 -213 0
-241 31 237 0
-241 -31 240 0
241 31 -237 0
241 -31 -240 0
-242 237 -218 0
-242 -237 218 0
242 237 218 0
242 -237 -218 0
-243 242 -230 0
-243 -242 230 0
243 242 230 0
243 -242 -230 0
-244 243 -189 0
-244 -243 189 0
244 243 189 0
244 -243 -189 0
-245 31 230 0
-245 -31 244 0
245 31 -230 0
245 -31 -244 0
-246 -245 241 0
-246 245 -241 0
246 -245 -241 0
246 245 241 0
-247 246 -234 0
-247 -246 234 0
247 246 234 0
247 -246 -234 0
-248 247 -222 0
-248 -247 222 0
248 247 222 0
248 -247 -222 0
-249 248 -214 0
-249 -248 214 0
249 248 214 0
249 -248 -214 0
-250 32 214 0
-250 -32 249 0
250 32 -214 0
250 -32 -249 0
-251 237 -230 0
-251 -237 230 0
251 237 230 0
251 -237 -230 0
-252 251 -207 0
-252 -251 207 0
252 251 207 0
252 -251 -207 0
-253 31 226 0
-253 -31 252 0
253 31 -226 0
253 -31 -252 0
-254 -218 194 0
-254 218 -194 0
254 -218 -194 0
254 218 194 0
-255 254 -230 0
-255 -254 230 0
255 254 230 0
255 -254 -230 0
-256 255 -189 0
-256 -255 189 0
256 255 189 0
256 -255 -189 0
-257 256 -213 0
-257 -256 213 0
257 256 213 0
257 -256 -213 0
-258 31 218 0
-258 -31 257 0
258 31 -218 0
258 -31 -257 0
-259 258 -222 0
-259 -258 222 0
259 258 222 0
259 -258 -222 0
-260 259 -253 0
-260 -259 253 0
260 259 253 0
260 -259 -253 0
-261 260 -214 0
-261 -260 214 0
261 260 214 0
261 -260 -214 0
-262 32 253 0
-262 -32 261 0
262 32 -253 0
262 -32 -261 0
-263 238 -218 0
-263 -238 218 0
263 238 218 0
263 -238 -218 0
-264 263 -207 0
-264 -263 207 0
264 263 207 0
264 -263 -207 0
-265 264 -226 0
-265 -264 226 0
265 264 226 0
265 -264 -226 0
-266 31 194 0
-266 -31 265 0
266 31 -194 0
266 -31 -265 0
-267 266 -234 0
-267 -266 234 0
267 266 234 0
267 -266 -234 0
-268 267 -222 0
-268 -267 222 0
268 267 222 0
268 -267 -222 0
-269 268 -253 0
-269 -268 253 0
269 268 253 0
269 -268 -253 0
-270 32 222 0
-270 -32 269 0
270 32 -222 0
270 -32 -269 0
-271 32 234 0
-271 -32 248 0
271 32 -234 0
271 -32 -248 0
-272 246 -222 0
-272 -246 222 0
272 246 222 0
272 -246 -222 0
-273 32 266 0
-273 -32 272 0
273 32 -266 0
273 -32 -272 0
-274 259 -214 0
-274 -259 214 0
274 259 214 0
274 -259 -214 0
-275 32 245 0
-275 -32 274 0
275 32 -245 0
275 -32 -274 0
-276 -275 273 0
-276 275 -273 0
276 -275 -273 0
276 275 273 0
-277 276 -271 0
-277 -276 271 0
277 276 271 0
277 -276 -271 0
-278 277 -270 0
-278 -277 270 0
278 277 270 0
278 -277 -270 0
-279 278 -262 0
-279 -278 262 0
279 278 262 0
279 -278 -262 0
-280 279 -250 0
-280 -279 250 0
280 279 250 0
280 -279 -250 0
-281 33 250 0
-281 -33 280 0
281 33 -250 0
281 -33 -280 0
-282 258 -245 0
-282 -258 245 0
282 258 245 0
282 -258 -245 0
-283 282 -222 0
-283 -282 222 0
283 282 222 0
283 -282 -222 0
-284 283 -214 0
-284 -283 214 0
284 283 214 0
284 -283 -214 0
-285 32 241 0
-285 -32 284 0
285 32 -241 0
285 -32 -284 0
-286 267 -253 0
-286 -267 253 0
286 267 253 0
286 -267 -253 0
-287 32 258 0
-287 -32 286 0
287 32 -258 0
287 -32 -286 0
-288 -287 285 0
-288 287 -285 0
288 -287 -285 0
288 287 285 0
-289 288 -275 0
-289 -288 275 0
289 288 275 0
289 -288 -275 0
-290 289 -271 0
-290 -289 271 0
290 289 271 0
290 -289 -271 0
-291 290 -270 0
-291 -290 270 0
291 290 270 0
291 -290 -270 0
-292 33 285 0
-292 -33 291 0
292 33 -285 0
292 -33 -291 0
-293 -287 273 0
-293 287 -273 0
293 -287 -273 0
293 287 273 0
-294 293 -250 0
-294 -293 250 0
294 293 250 0
294 -293 -250 0
-295 33 270 0
-295 -33 294 0
295 33 -270 0
295 -33 -294 0
-296 -295 292 0
-296 295 -292 0
296 -295 -292 0
296 295 292 0
-297 296 -281 0
-297 -296 281 0
297 296 281 0
297 -296 -281 0
-298 34 281 0
-298 -34 297 0
298 34 -281 0
298 -34 -297 0
-299 -298 -17 0
-299 298 17 0
-300 291 -262 0
-300 -291 262 0
300 291 262 0
300 -291 -262 0
-301 33 262 0
-301 -33 300 0
301 33 -262 0
301 -33 -300 0
-302 285 -275 0
-302 -285 275 0
302 285 275 0
302 -285 -275 0
-303 302 -271 0
-303 -302 271 0
303 302 271 0
303 -302 -271 0
-304 303 -250 0
-304 -303 250 0
304 303 250 0
304 -303 -250 0
-305 33 275 0
-305 -33 304 0
305 33 -275 0
305 -33 -304 0
-306 305 -295 0
-306 -305 295 0
306 305 295 0
306 -305 -295 0
-307 306 -301 0
-307 -306 301 0
307 306 301 0
307 -306 -301 0
-308 307 -281 0
-308 -307 281 0
308 307 281 0
308 -307 -281 0
-309 34 301 0
-309 -34 308 0
309 34 -301 0
309 -34 -308 0
-310 -309 -16 0
-310 309 16 0
-311 287 -271 0
-311 -287 271 0
311 287 271 0
311 -287 -271 0
-312 311 -270 0
-312 -311 270 0
312 311 270 0
312 -311 -270 0
-313 312 -262 0
-313 -312 262 0
313 312 262 0
313 -312 -262 0
-314 313 -250 0
-314 -313 250 0
314 313 250 0
314 -313 -250 0
-315 33 287 0
-315 -33 314 0
315 33 -287 0
315 -33 -314 0
-316 285 -273 0
-316 -285 273 0
316 285 273 0
316 -285 -273 0
-317 316 -262 0
-317 -316 262 0
317 316 262 0
317 -316 -262 0
-318 33 271 0
-318 -33 317 0
318 33 -271 0
318 -33 -317 0
-319 -318 315 0
-319 318 -315 0
319 -318 -315 0
319 318 315 0
-320 319 -295 0
-320 -319 295 0
320 319 295 0
320 -319 -295 0
-321 320 -301 0
-321 -320 301 0
321 320 301 0
321 -320 -301 0
-322 34 295 0
-322 -34 321 0
322 34 -295 0
322 -34 -321 0
-323 -322 -15 0
-323 322 15 0
-324 33 273 0
-324 -33 279 0
324 33 -273 0
324 -33 -279 0
-325 324 -305 0
-325 -324 305 0
325 324 305 0
325 -324 -305 0
-326 325 -318 0
-326 -325 318 0
326 325 318 0
326 -325 -318 0
-327 326 -295 0
-327 -326 295 0
327 326 295 0
327 -326 -295 0
-328 34 318 0
-328 -34 327 0
328 34 -318 0
328 -34 -327 0
-329 -328 -14 0
-329 328 14 0
-330 -315 292 0
-330 315 -292 0
330 -315 -292 0
330 315 292 0
-331 330 -305 0
-331 -330 305 0
331 330 305 0
331 -330 -305 0
-332 331 -318 0
-332 -331 318 0
332 331 318 0
332 -331 -318 0
-333 34 305 0
-333 -34 332 0
333 34 -305 0
333 -34 -332 0
-334 -333 -13 0
-334 333 13 0
-335 324 -315 0
-335 -324 315 0
335 324 315 0
335 -324 -315 0
-336 335 -318 0
-336 -335 318 0
336 335 318 0
336 -335 -318 0
-337 336 -295 0
-337 -336 295 0
337 336 295 0
337 -336 -295 0
-338 337 -281 0
-338 -337 281 0
338 337 281 0
338 -337 -281 0
-339 34 315 0
-339 -34 338 0
339 34 -315 0
339 -34 -338 0
-340 -339 -12 0
-340 339 12 0
-341 -324 292 0
-341 324 -292 0
341 -324 -292 0
341 324 292 0
-342 341 -305 0
-342 -341 305 0
342 341 305 0
342 -341 -305 0
-343 342 -318 0
-343 -342 318 0
343 342 318 0
343 -342 -318 0
-344 343 -301 0
-344 -343 301 0
344 343 301 0
344 -343 -301 0
-345 34 324 0
-345 -34 344 0
345 34 -324 0
345 -34 -344 0
-346 -345 -11 0
-346 345 11 0
-347 330 -318 0
-347 -330 318 0
347 330 318 0
347 -330 -318 0
-348 347 -281 0
-348 -347 281 0
348 347 281 0
348 -347 -281 0
-349 34 292 0
-349 -34 348 0
349 34 -292 0
349 -34 -348 0
-350 -349 -10 0
-350 349 10 0
-351 27 -26 0
-351 -27 26 0
-352 27 0
-352 28 0
352 -27 -28 0
-353 29 0
-353 352 0
353 -29 -352 0
-354 30 0
-354 353 0
354 -30 -353 0
-355 31 0
-355 354 0
355 -31 -354 0
-356 32 0
-356 355 0
356 -32 -355 0
-357 33 0
-357 356 0
357 -33 -356 0
358 -34 -357 0
-359 -142 0
-359 -358 0
-360 351 0
-360 359 0
-361 350 0
-361 360 0
-362 346 0
-362 361 0
-363 340 0
-363 362 0
-364 334 0
-364 363 0
-365 329 0
-365 364 0
-366 323 0
-366 365 0
-367 310 0
-367 366 0
-368 299 0
-368 367 0
369 151 368 0
-370 129 0
-370 -369 0
-371 1 0
-371 370 0
-372 -78 -43 0
-372 78 43 0
-373 1 0
-373 372 0
-374 -79 -44 0
-374 79 44 0
-375 373 0
-375 374 0
-376 -80 -45 0
-376 80 45 0
-377 375 0
-377 376 0
-378 -81 -46 0
-378 81 46 0
-379 377 0
-379 378 0
-380 -82 -47 0
-380 82 47 0
-381 379 0
-381 380 0
-382 -83 -48 0
-382 83 48 0
-383 381 0
-383 382 0
-384 -84 -49 0
-384 84 49 0
-385 383 0
-385 384 0
-386 -85 -50 0
-386 85 50 0
-387 385 0
-387 386 0
-388 -86 -51 0
-388 86 51 0
-389 387 0
-389 388 0
-390 -87 -52 0
-390 87 52 0
-391 389 0
-391 390 0
-392 -88 -53 0
-392 88 53 0
-393 391 0
-393 392 0
-394 -89 -54 0
-394 89 54 0
-395 393 0
-395 394 0
-396 -90 -55 0
-396 90 55 0
-397 395 0
-397 396 0
-398 -91 -56 0
-398 91 56 0
-399 397 0
-399 398 0
-400 -92 -57 0
-400 92 57 0
-401 399 0
-401 400 0
-402 -93 -58 0
-402 93 58 0
-403 401 0
-403 402 0
-404 118 -59 0
-404 -118 59 0
-405 403 0
-405 404 0
-406 25 -16 0
-406 -25 16 0
406 25 16 0
406 -25 -16 0
-407 24 -15 0
-407 -24 15 0
407 24 15 0
407 -24 -15 0
-408 23 -14 0
-408 -23 14 0
408 23 14 0
408 -23 -14 0
-409 22 -13 0
-409 -22 13 0
409 22 13 0
409 -22 -13 0
-410 21 -12 0
-410 -21 12 0
410 21 12 0
410 -21 -12 0
-411 20 -11 0
-411 -20 11 0
411 20 11 0
411 -20 -11 0
-412 19 -10 0
-412 -19 10 0
412 19 10 0
412 -19 -10 0
-413 14 -13 0
-413 -14 13 0
413 14 13 0
413 -14 -13 0
-414 413 15 0
-414 -413 -15 0
414 413 -15 0
414 -413 15 0
-415 414 17 0
-415 -414 -17 0
415 414 -17 0
415 -414 17 0
-416 415 18 0
-416 -415 -18 0
416 415 -18 0
416 -415 18 0
-417 -142 0
-417 416 0
417 142 -416 0
-418 412 0
-418 417 0
418 -412 -417 0
-419 411 0
-419 418 0
419 -411 -418 0
-420 410 0
-420 419 0
420 -410 -419 0
-421 409 0
-421 420 0
421 -409 -420 0
-422 408 0
-422 421 0
422 -408 -421 0
-423 407 0
-423 422 0
423 -407 -422 0
-424 406 0
-424 423 0
424 -406 -423 0
-425 -4 0
-425 68 0
425 4 -68 0
-426 -5 0
-426 425 0
426 5 -425 0
-427 -6 0
-427 426 0
427 6 -426 0
-428 -7 0
-428 427 0
428 7 -427 0
-429 -8 0
-429 428 0
429 8 -428 0
-430 -9 0
-430 429 0
430 9 -429 0
-431 -142 0
-431 430 0
431 142 -430 0
-432 -424 0
-432 431 0
432 424 -431 0
-433 -27 0
-433 432 0
433 27 -432 0
-434 433 -60 0
-434 -433 60 0
-435 405 0
-435 434 0
-436 -28 27 0
-436 28 -27 0
436 -28 -27 0
436 28 27 0
-437 432 0
-437 -436 0
437 -432 436 0
-438 437 -61 0
-438 -437 61 0
-439 435 0
-439 438 0
-440 352 -29 0
-440 -352 29 0
440 352 29 0
440 -352 -29 0
-441 432 0
-441 -440 0
441 -432 440 0
-442 441 -62 0
-442 -441 62 0
-443 439 0
-443 442 0
-444 353 -30 0
-444 -353 30 0
444 353 30 0
444 -353 -30 0
-445 432 0
-445 -444 0
445 -432 444 0
-446 445 -63 0
-446 -445 63 0
-447 443 0
-447 446 0
-448 354 -31 0
-448 -354 31 0
448 354 31 0
448 -354 -31 0
-449 432 0
-449 -448 0
449 -432 448 0
-450 449 -64 0
-450 -449 64 0
-451 447 0
-451 450 0
-452 355 -32 0
-452 -355 32 0
452 355 32 0
452 -355 -32 0
-453 432 0
-453 -452 0
453 -432 452 0
-454 453 -65 0
-454 -453 65 0
-455 451 0
-455 454 0
-456 356 -33 0
-456 -356 33 0
456 356 33 0
456 -356 -33 0
-457 432 0
-457 -456 0
457 -432 456 0
-458 457 -66 0
-458 -457 66 0
-459 455 0
-459 458 0
-460 357 -34 0
-460 -357 34 0
460 357 34 0
460 -357 -34 0
-461 432 0
-461 -460 0
461 -432 460 0
-462 461 -67 0
-462 -461 67 0
-463 459 0
-463 462 0
-464 -35 0
-464 -36 0
-465 -37 0
-465 -38 0
-466 464 0
-466 465 0
-467 -39 0
-467 -40 0
-468 -41 0
-468 -42 0
-469 467 0
-469 468 0
-470 466 0
-470 469 0
-471 -51 0
-471 -52 0
471 51 52 0
472 53 54 0
473 -471 -472 0
474 55 56 0
475 57 58 0
476 -474 -475 0
477 -473 -476 0
-478 -50 46 0
-478 50 -46 0
478 -50 -46 0
478 50 46 0
-479 478 47 0
-479 -478 -47 0
479 478 -47 0
479 -478 47 0
-480 479 48 0
-480 -479 -48 0
480 479 -48 0
480 -479 48 0
481 480 51 0
481 -480 -51 0
482 -52 43 0
482 52 -43 0
-483 -481 0
-483 -482 0
484 -53 44 0
484 53 -44 0
485 -54 45 0
485 54 -45 0
-486 -484 0
-486 -485 0
-487 483 0
-487 486 0
488 -55 46 0
488 55 -46 0
489 -56 47 0
489 56 -47 0
-490 -488 0
-490 -489 0
491 -57 48 0
491 57 -48 0
492 -58 49 0
492 58 -49 0
-493 -491 0
-493 -492 0
-494 490 0
-494 493 0
-495 487 0
-495 494 0
-496 -477 0
-496 495 0
-497 59 0
-497 496 0
-498 470 0
-498 497 0
-499 -43 0
-499 480 0
-500 -44 0
-500 -45 0
-501 499 0
-501 500 0
-502 -46 0
-502 -47 0
-503 -48 0
-503 -49 0
-504 502 0
-504 503 0
-505 501 0
-505 504 0
-506 -477 0
-506 505 0
507 498 506 0
508 60 61 0
509 62 -508 0
510 63 -509 0
511 64 -510 0
512 65 -511 0
513 66 -512 0
514 67 -513 0
-515 -53 0
-515 471 0
515 53 -471 0
-516 -54 0
-516 515 0
516 54 -515 0
-517 -55 0
-517 516 0
517 55 -516 0
-518 -56 0
-518 517 0
518 56 -517 0
-519 -57 0
-519 518 0
519 57 -518 0
-520 -58 0
-520 519 0
520 58 -519 0
521 43 44 0
522 45 -521 0
523 46 -522 0
524 47 -523 0
525 48 -524 0
526 49 -525 0
527 50 -526 0
528 -520 -527 0
529 -514 -528 0
-530 60 -58 0
-530 -60 -57 0
530 60 58 0
530 -60 57 0
-531 60 -56 0
-531 -60 -55 0
531 60 56 0
531 -60 55 0
-532 60 -54 0
-532 -60 -53 0
532 60 54 0
532 -60 53 0
-533 60 -55 0
-533 -60 -54 0
533 60 55 0
533 -60 54 0
-534 -533 532 0
-534 533 -532 0
534 -533 -532 0
534 533 532 0
-535 534 -531 0
-535 -534 531 0
535 534 531 0
535 -534 -531 0
-536 535 -530 0
-536 -535 530 0
536 535 530 0
536 -535 -530 0
-537 60 -52 0
-537 -60 -51 0
537 60 52 0
537 -60 51 0
-538 61 537 0
-538 -61 536 0
538 61 -537 0
538 -61 -536 0
-539 61 531 0
-539 -61 532 0
539 61 -531 0
539 -61 -532 0
-540 62 539 0
-540 -62 538 0
540 62 -539 0
540 -62 -538 0
-541 61 530 0
-541 -61 531 0
541 61 -530 0
541 -61 -531 0
-542 61 532 0
-542 -61 537 0
542 61 -532 0
542 -61 -537 0
-543 60 -53 0
-543 -60 -52 0
543 60 53 0
543 -60 52 0
-544 61 533 0
-544 -61 543 0
544 61 -533 0
544 -61 -543 0
-545 -544 542 0
-545 544 -542 0
545 -544 -542 0
545 544 542 0
-546 545 -539 0
-546 -545 539 0
546 545 539 0
546 -545 -539 0
-547 546 -541 0
-547 -546 541 0
547 546 541 0
547 -546 -541 0
-548 62 542 0
-548 -62 547 0
548 62 -542 0
548 -62 -547 0
-549 55 -54 0
-549 -55 54 0
549 55 54 0
549 -55 -54 0
-550 549 56 0
-550 -549 -56 0
550 549 -56 0
550 -549 56 0
-551 550 58 0
-551 -550 -58 0
551 550 -58 0
551 -550 58 0
-552 60 -51 0
-552 -60 551 0
552 60 51 0
552 -60 -551 0
-553 61 543 0
-553 -61 552 0
553 61 -543 0
553 -61 -552 0
-554 -553 538 0
-554 553 -538 0
554 -553 -538 0
554 553 538 0
-555 554 -542 0
-555 -554 542 0
555 554 542 0
555 -554 -542 0
-556 555 -539 0
-556 -555 539 0
556 555 539 0
556 -555 -539 0
-557 62 538 0
-557 -62 556 0
557 62 -538 0
557 -62 -556 0
-558 60 -57 0
-558 -60 -56 0
558 60 57 0
558 -60 56 0
-559 61 558 0
-559 -61 533 0
559 61 -558 0
559 -61 -533 0
-560 553 -542 0
-560 -553 542 0
560 553 542 0
560 -553 -542 0
-561 560 -544 0
-561 -560 544 0
561 560 544 0
561 -560 -544 0
-562 561 -559 0
-562 -561 559 0
562 561 559 0
562 -561 -559 0
-563 62 553 0
-563 -62 562 0
563 62 -553 0
563 -62 -562 0
-564 -563 557 0
-564 563 -557 0
564 -563 -557 0
564 563 557 0
-565 564 -548 0
-565 -564 548 0
565 564 548 0
565 -564 -548 0
-566 565 -540 0
-566 -565 540 0
566 565 540 0
566 -565 -540 0
-567 63 540 0
-567 -63 566 0
567 63 -540 0
567 -63 -566 0
-568 62 541 0
-568 -62 542 0
568 62 -541 0
568 -62 -542 0
-569 62 559 0
-569 -62 553 0
569 62 -559 0
569 -62 -553 0
-570 -569 548 0
-570 569 -548 0
570 -569 -548 0
570 569 548 0
-571 570 -568 0
-571 -570 568 0
571 570 568 0
571 -570 -568 0
-572 63 557 0
-572 -63 571 0
572 63 -557 0
572 -63 -571 0
-573 543 -532 0
-573 -543 532 0
573 543 532 0
573 -543 -532 0
-574 573 -533 0
-574 -573 533 0
574 573 533 0
574 -573 -533 0
-575 574 -558 0
-575 -574 558 0
575 574 558 0
575 -574 -558 0
-576 61 552 0
-576 -61 575 0
576 61 -552 0
576 -61 -575 0
-577 62 544 0
-577 -62 576 0
577 62 -544 0
577 -62 -576 0
-578 576 -538 0
-578 -576 538 0
578 576 538 0
578 -576 -538 0
-579 578 -553 0
-579 -578 553 0
579 578 553 0
579 -578 -553 0
-580 579 -544 0
-580 -579 544 0
580 579 544 0
580 -579 -544 0
-581 62 576 0
-581 -62 580 0
581 62 -576 0
581 -62 -580 0
-582 581 -557 0
-582 -581 557 0
582 581 557 0
582 -581 -557 0
-583 582 -563 0
-583 -582 563 0
583 582 563 0
583 -582 -563 0
-584 583 -577 0
-584 -583 577 0
584 583 577 0
584 -583 -577 0
-585 63 577 0
-585 -63 584 0
585 63 -577 0
585 -63 -584 0
-586 -585 572 0
-586 585 -572 0
586 -585 -572 0
586 585 572 0
-587 586 -567 0
-587 -586 567 0
587 586 567 0
587 -586 -567 0
-588 -577 548 0
-588 577 -548 0
588 -577 -548 0
588 577 548 0
-589 588 -540 0
-589 -588 540 0
589 588 540 0
589 -588 -540 0
-590 589 -568 0
-590 -589 568 0
590 589 568 0
590 -589 -568 0
-591 63 568 0
-591 -63 590 0
591 63 -568 0
591 -63 -590 0
-592 64 591 0
-592 -64 587 0
592 64 -591 0
592 -64 -587 0
-593 581 -540 0
-593 -581 540 0
593 581 540 0
593 -581 -540 0
-594 593 -569 0
-594 -593 569 0
594 593 569 0
594 -593 -569 0
-595 594 -568 0
-595 -594 568 0
595 594 568 0
595 -594 -568 0
-596 63 563 0
-596 -63 595 0
596 63 -563 0
596 -63 -595 0
-597 596 -585 0
-597 -596 585 0
597 596 585 0
597 -596 -585 0
-598 597 -567 0
-598 -597 567 0
598 597 567 0
598 -597 -567 0
-599 598 -591 0
-599 -598 591 0
599 598 591 0
599 -598 -591 0
-600 64 567 0
-600 -64 599 0
600 64 -567 0
600 -64 -599 0
-601 563 -548 0
-601 -563 548 0
601 563 548 0
601 -563 -548 0
-602 601 -577 0
-602 -601 577 0
602 601 577 0
602 -601 -577 0
-603 602 -569 0
-603 -602 569 0
603 602 569 0
603 -602 -569 0
-604 63 569 0
-604 -63 603 0
604 63 -569 0
604 -63 -603 0
-605 582 -577 0
-605 -582 577 0
605 582 577 0
605 -582 -577 0
-606 605 -540 0
-606 -605 540 0
606 605 540 0
606 -605 -540 0
-607 606 -568 0
-607 -606 568 0
607 606 568 0
607 -606 -568 0
-608 63 548 0
-608 -63 607 0
608 63 -548 0
608 -63 -607 0
-609 -608 572 0
-609 608 -572 0
609 -608 -572 0
609 608 572 0
-610 609 -585 0
-610 -609 585 0
610 609 585 0
610 -609 -585 0
-611 610 -604 0
-611 -610 604 0
611 610 604 0
611 -610 -604 0
-612 64 585 0
-612 -64 611 0
612 64 -585 0
612 -64 -611 0
-613 563 -540 0
-613 -563 540 0
613 563 540 0
613 -563 -540 0
-614 613 -569 0
-614 -613 569 0
614 613 569 0
614 -613 -569 0
-615 63 581 0
-615 -63 614 0
615 63 -581 0
615 -63 -614 0
-616 615 -572 0
-616 -615 572 0
616 615 572 0
616 -615 -572 0
-617 616 -585 0
-617 -616 585 0
617 616 585 0
617 -616 -585 0
-618 617 -591 0
-618 -617 591 0
618 617 591 0
618 -617 -591 0
-619 64 615 0
-619 -64 618 0
619 64 -615 0
619 -64 -618 0
-620 615 -596 0
-620 -615 596 0
620 615 596 0
620 -615 -596 0
-621 620 -608 0
-621 -620 608 0
621 620 608 0
621 -620 -608 0
-622 621 -567 0
-622 -621 567 0
622 621 567 0
622 -621 -567 0
-623 64 608 0
-623 -64 622 0
623 64 -608 0
623 -64 -622 0
-624 -623 619 0
-624 623 -619 0
624 -623 -619 0
624 623 619 0
-625 624 -612 0
-625 -624 612 0
625 624 612 0
625 -624 -612 0
-626 625 -600 0
-626 -625 600 0
626 625 600 0
626 -625 -600 0
-627 626 -592 0
-627 -626 592 0
627 626 592 0
627 -626 -592 0
-628 65 592 0
-628 -65 627 0
628 65 -592 0
628 -65 -627 0
-629 615 -608 0
-629 -615 608 0
629 615 608 0
629 -615 -608 0
-630 629 -585 0
-630 -629 585 0
630 629 585 0
630 -629 -585 0
-631 64 604 0
-631 -64 630 0
631 64 -604 0
631 -64 -630 0
-632 -596 572 0
-632 596 -572 0
632 -596 -572 0
632 596 572 0
-633 632 -608 0
-633 -632 608 0
633 632 608 0
633 -632 -608 0
-634 633 -567 0
-634 -633 567 0
634 633 567 0
634 -633 -567 0
-635 634 -591 0
-635 -634 591 0
635 634 591 0
635 -634 -591 0
-636 64 596 0
-636 -64 635 0
636 64 -596 0
636 -64 -635 0
-637 636 -600 0
-637 -636 600 0
637 636 600 0
637 -636 -600 0
-638 637 -631 0
-638 -637 631 0
638 637 631 0
638 -637 -631 0
-639 638 -592 0
-639 -638 592 0
639 638 592 0
639 -638 -592 0
-640 65 631 0
-640 -65 639 0
640 65 -631 0
640 -65 -639 0
-641 616 -596 0
-641 -616 596 0
641 616 596 0
641 -616 -596 0
-642 641 -585 0
-642 -641 585 0
642 641 585 0
642 -641 -585 0
-643 642 -604 0
-643 -642 604 0
643 642 604 0
643 -642 -604 0
-644 64 572 0
-644 -64 643 0
644 64 -572 0
644 -64 -643 0
-645 644 -612 0
-645 -644 612 0
645 644 612 0
645 -644 -612 0
-646 645 -600 0
-646 -645 600 0
646 645 600 0
646 -645 -600 0
-647 646 -631 0
-647 -646 631 0
647 646 631 0
647 -646 -631 0
-648 65 600 0
-648 -65 647 0
648 65 -600 0
648 -65 -647 0
-649 65 612 0
-649 -65 626 0
649 65 -612 0
649 -65 -626 0
-650 624 -600 0
-650 -624 600 0
650 624 600 0
650 -624 -600 0
-651 65 644 0
-651 -65 650 0
651 65 -644 0
651 -65 -650 0
-652 637 -592 0
-652 -637 592 0
652 637 592 0
652 -637 -592 0
-653 65 623 0
-653 -65 652 0
653 65 -623 0
653 -65 -652 0
-654 -653 651 0
-654 653 -651 0
654 -653 -651 0
654 653 651 0
-655 654 -649 0
-655 -654 649 0
655 654 649 0
655 -654 -649 0
-656 655 -648 0
-656 -655 648 0
656 655 648 0
656 -655 -648 0
-657 656 -640 0
-657 -656 640 0
657 656 640 0
657 -656 -640 0
-658 657 -628 0
-658 -657 628 0
658 657 628 0
658 -657 -628 0
-659 66 628 0
-659 -66 658 0
659 66 -628 0
659 -66 -658 0
-660 636 -623 0
-660 -636 623 0
660 636 623 0
660 -636 -623 0
-661 660 -600 0
-661 -660 600 0
661 660 600 0
661 -660 -600 0
-662 661 -592 0
-662 -661 592 0
662 661 592 0
662 -661 -592 0
-663 65 619 0
-663 -65 662 0
663 65 -619 0
663 -65 -662 0
-664 645 -631 0
-664 -645 631 0
664 645 631 0
664 -645 -631 0
-665 65 636 0
-665 -65 664 0
665 65 -636 0
665 -65 -664 0
-666 -665 663 0
-666 665 -663 0
666 -665 -663 0
666 665 663 0
-667 666 -653 0
-667 -666 653 0
667 666 653 0
667 -666 -653 0
-668 667 -649 0
-668 -667 649 0
668 667 649 0
668 -667 -649 0
-669 668 -648 0
-669 -668 648 0
669 668 648 0
669 -668 -648 0
-670 66 663 0
-670 -66 669 0
670 66 -663 0
670 -66 -669 0
-671 -665 651 0
-671 665 -651 0
671 -665 -651 0
671 665 651 0
-672 671 -628 0
-672 -671 628 0
672 671 628 0
672 -671 -628 0
-673 66 648 0
-673 -66 672 0
673 66 -648 0
673 -66 -672 0
-674 -673 670 0
-674 673 -670 0
674 -673 -670 0
674 673 670 0
-675 674 -659 0
-675 -674 659 0
675 674 659 0
675 -674 -659 0
-676 67 659 0
-676 -67 675 0
676 67 -659 0
676 -67 -675 0
677 -676 50 0
677 676 -50 0
-678 669 -640 0
-678 -669 640 0
678 669 640 0
678 -669 -640 0
-679 66 640 0
-679 -66 678 0
679 66 -640 0
679 -66 -678 0
-680 663 -653 0
-680 -663 653 0
680 663 653 0
680 -663 -653 0
-681 680 -649 0
-681 -680 649 0
681 680 649 0
681 -680 -649 0
-682 681 -628 0
-682 -681 628 0
682 681 628 0
682 -681 -628 0
-683 66 653 0
-683 -66 682 0
683 66 -653 0
683 -66 -682 0
-684 683 -673 0
-684 -683 673 0
684 683 673 0
684 -683 -673 0
-685 684 -679 0
-685 -684 679 0
685 684 679 0
685 -684 -679 0
-686 685 -659 0
-686 -685 659 0
686 685 659 0
686 -685 -659 0
-687 67 679 0
-687 -67 686 0
687 67 -679 0
687 -67 -686 0
688 -687 49 0
688 687 -49 0
-689 665 -649 0
-689 -665 649 0
689 665 649 0
689 -665 -649 0
-690 689 -648 0
-690 -689 648 0
690 689 648 0
690 -689 -648 0
-691 690 -640 0
-691 -690 640 0
691 690 640 0
691 -690 -640 0
-692 691 -628 0
-692 -691 628 0
692 691 628 0
692 -691 -628 0
-693 66 665 0
-693 -66 692 0
693 66 -665 0
693 -66 -692 0
-694 663 -651 0
-694 -663 651 0
694 663 651 0
694 -663 -651 0
-695 694 -640 0
-695 -694 640 0
695 694 640 0
695 -694 -640 0
-696 66 649 0
-696 -66 695 0
696 66 -649 0
696 -66 -695 0
-697 -696 693 0
-697 696 -693 0
697 -696 -693 0
697 696 693 0
-698 697 -673 0
-698 -697 673 0
698 697 673 0
698 -697 -673 0
-699 698 -679 0
-699 -698 679 0
699 698 679 0
699 -698 -679 0
-700 67 673 0
-700 -67 699 0
700 67 -673 0
700 -67 -699 0
701 -700 48 0
701 700 -48 0
-702 66 651 0
-702 -66 657 0
702 66 -651 0
702 -66 -657 0
-703 702 -683 0
-703 -702 683 0
703 702 683 0
703 -702 -683 0
-704 703 -696 0
-704 -703 696 0
704 703 696 0
704 -703 -696 0
-705 704 -673 0
-705 -704 673 0
705 704 673 0
705 -704 -673 0
-706 67 696 0
-706 -67 705 0
706 67 -696 0
706 -67 -705 0
707 -706 47 0
707 706 -47 0
-708 -693 670 0
-708 693 -670 0
708 -693 -670 0
708 693 670 0
-709 708 -683 0
-709 -708 683 0
709 708 683 0
709 -708 -683 0
-710 709 -696 0
-710 -709 696 0
710 709 696 0
710 -709 -696 0
-711 67 683 0
-711 -67 710 0
711 67 -683 0
711 -67 -710 0
712 -711 46 0
712 711 -46 0
-713 702 -693 0
-713 -702 693 0
713 702 693 0
713 -702 -693 0
-714 713 -696 0
-714 -713 696 0
714 713 696 0
714 -713 -696 0
-715 714 -673 0
-715 -714 673 0
715 714 673 0
715 -714 -673 0
-716 715 -659 0
-716 -715 659 0
716 715 659 0
716 -715 -659 0
-717 67 693 0
-717 -67 716 0
717 67 -693 0
717 -67 -716 0
718 -717 45 0
718 717 -45 0
-719 -702 670 0
-719 702 -670 0
719 -702 -670 0
719 702 670 0
-720 719 -683 0
-720 -719 683 0
720 719 683 0
720 -719 -683 0
-721 720 -696 0
-721 -720 696 0
721 720 696 0
721 -720 -696 0
-722 721 -679 0
-722 -721 679 0
722 721 679 0
722 -721 -679 0
-723 67 702 0
-723 -67 722 0
723 67 -702 0
723 -67 -722 0
724 -723 44 0
724 723 -44 0
-725 708 -696 0
-725 -708 696 0
725 708 696 0
725 -708 -696 0
-726 725 -659 0
-726 -725 659 0
726 725 659 0
726 -725 -659 0
-727 67 670 0
-727 -67 726 0
727 67 -670 0
727 -67 -726 0
728 -727 43 0
728 727 -43 0
729 60 59 0
729 -60 -59 0
-730 60 0
-730 61 0
-731 62 0
-731 730 0
-732 63 0
-732 731 0
-733 64 0
-733 732 0
-734 65 0
-734 733 0
-735 66 0
-735 734 0
-736 67 0
-736 735 0
737 520 736 0
738 -729 -737 0
739 -728 -738 0
740 -724 -739 0
741 -718 -740 0
742 -712 -741 0
743 -707 -742 0
744 -701 -743 0
745 -688 -744 0
746 -677 -745 0
-747 -529 0
-747 -746 0
748 -507 747 0
749 -1 -748 0
-750 1 0
-750 463 0
-751 1 0
-751 750 0
-752 371 0
-752 751 0
-753 -749 0
-753 752 0
753 0
