p cnf 90 160
1 0
-16 -2 0
-16 -3 0
-17 -4 0
-17 16 0
-18 -8 0
-18 -9 0
18 8 9 0
-19 -10 0
-19 18 0
19 10 -18 0
-20 8 -7 0
-20 -8 7 0
-21 9 -5 0
-21 -9 5 0
-22 20 0
-22 21 0
-23 10 -6 0
-23 -10 6 0
-24 22 0
-24 23 0
-25 -19 0
-25 24 0
-26 11 0
-26 17 0
-27 25 0
-27 26 0
-28 -5 0
-28 -7 0
-29 -6 0
-29 28 0
-30 -19 0
-30 29 0
31 27 30 0
32 12 13 0
33 14 -32 0
34 15 -33 0
35 5 6 0
36 7 -35 0
37 -19 -36 0
38 -34 -37 0
-39 12 -8 0
-39 -12 -10 0
39 12 8 0
39 -12 10 0
-40 12 -10 0
-40 -12 -9 0
40 12 10 0
40 -12 9 0
-41 13 40 0
-41 -13 39 0
41 13 -40 0
41 -13 -39 0
-42 12 -9 0
-42 -12 -8 0
42 12 9 0
42 -12 8 0
-43 13 39 0
-43 -13 42 0
43 13 -39 0
43 -13 -42 0
-44 14 43 0
-44 -14 41 0
44 14 -43 0
44 -14 -41 0
-45 13 42 0
-45 -13 40 0
45 13 -42 0
45 -13 -40 0
-46 14 41 0
-46 -14 45 0
46 14 -41 0
46 -14 -45 0
-47 15 46 0
-47 -15 44 0
47 15 -46 0
47 -15 -44 0
48 -47 7 0
48 47 -7 0
-49 14 45 0
-49 -14 43 0
49 14 -45 0
49 -14 -43 0
-50 15 49 0
-50 -15 46 0
50 15 -49 0
50 -15 -46 0
51 -50 6 0
51 50 -6 0
-52 15 44 0
-52 -15 49 0
52 15 -44 0
52 -15 -49 0
53 -52 5 0
53 52 -5 0
54 12 11 0
54 -12 -11 0
55 14 -15 0
56 13 -55 0
57 12 -56 0
-58 15 0
-58 -57 0
59 19 58 0
60 -54 -59 0
61 -53 -60 0
62 -51 -61 0
63 -48 -62 0
-64 -38 0
-64 -63 0
65 -31 64 0
66 -1 -65 0
-67 5 1 0
-67 -5 -1 0
-68 1 0
-68 67 0
-69 6 1 0
-69 -6 -1 0
-70 68 0
-70 69 0
-71 7 1 0
-71 -7 -1 0
-72 70 0
-72 71 0
-73 8 1 0
-73 -8 -1 0
-74 72 0
-74 73 0
-75 9 1 0
-75 -9 -1 0
-76 74 0
-76 75 0
-77 10 1 0
-77 -10 -1 0
-78 76 0
-78 77 0
-79 11 1 0
-79 -11 -1 0
-80 78 0
-80 79 0
-81 12 1 0
-81 -12 -1 0
-82 80 0
-82 81 0
-83 13 1 0
-83 -13 -1 0
-84 82 0
-84 83 0
-85 14 1 0
-85 -14 -1 0
-86 84 0
-86 85 0
-87 15 1 0
-87 -15 -1 0
-88 86 0
-88 87 0
-89 1 0
-89 88 0
-90 -66 0
-90 89 0
90 0
