p cnf 92 171
1 0
-16 -2 0
-16 -3 0
-17 -4 0
-17 16 0
18 8 9 0
19 10 -18 0
-20 8 -7 0
-20 -8 7 0
-21 9 -5 0
-21 -9 5 0
-22 20 0
-22 21 0
-23 10 -6 0
-23 -10 6 0
-24 22 0
-24 23 0
-25 -19 0
-25 24 0
26 2 3 0
27 4 -26 0
-28 -8 0
-28 -9 0
28 8 9 0
-29 -10 0
-29 28 0
29 10 -28 0
30 8 7 0
30 -8 -7 0
31 9 5 0
31 -9 -5 0
32 -30 -31 0
33 10 6 0
33 -10 -6 0
34 -32 -33 0
35 29 -34 0
-36 11 0
-36 17 0
-37 25 0
-37 36 0
-38 -5 0
-38 -7 0
-39 -6 0
-39 38 0
-40 -19 0
-40 39 0
41 37 40 0
42 -1 -41 0
43 -11 -27 0
44 -35 -43 0
45 5 7 0
46 6 -45 0
47 29 -46 0
-48 -44 0
-48 -47 0
-49 -12 0
-49 -13 0
-50 -14 0
-50 49 0
-51 -15 0
-51 50 0
-52 -5 0
-52 -6 0
-53 -7 0
-53 52 0
-54 29 0
-54 53 0
-55 51 0
-55 54 0
-56 12 -8 0
-56 -12 -10 0
56 12 8 0
56 -12 10 0
-57 12 -10 0
-57 -12 -9 0
57 12 10 0
57 -12 9 0
-58 13 57 0
-58 -13 56 0
58 13 -57 0
58 -13 -56 0
-59 12 -9 0
-59 -12 -8 0
59 12 9 0
59 -12 8 0
-60 13 56 0
-60 -13 59 0
60 13 -56 0
60 -13 -59 0
-61 14 60 0
-61 -14 58 0
61 14 -60 0
61 -14 -58 0
-62 13 59 0
-62 -13 57 0
62 13 -59 0
62 -13 -57 0
-63 14 58 0
-63 -14 62 0
63 14 -58 0
63 -14 -62 0
-64 15 63 0
-64 -15 61 0
64 15 -63 0
64 -15 -61 0
-65 -64 -7 0
-65 64 7 0
-66 14 62 0
-66 -14 60 0
66 14 -62 0
66 -14 -60 0
-67 15 66 0
-67 -15 63 0
67 15 -66 0
67 -15 -63 0
-68 -67 -6 0
-68 67 6 0
-69 15 61 0
-69 -15 66 0
69 15 -61 0
69 -15 -66 0
-70 -69 -5 0
-70 69 5 0
-71 12 -11 0
-71 -12 11 0
-72 9 -8 0
-72 -9 8 0
72 9 8 0
72 -9 -8 0
-73 10 -8 0
-73 -10 8 0
73 10 8 0
73 -10 -8 0
-74 72 0
-74 73 0
74 -72 -73 0
-75 -14 0
-75 -15 0
-76 -13 0
-76 75 0
-77 -74 0
-77 76 0
-78 -74 -13 0
-78 74 13 0
-79 75 0
-79 78 0
-80 -12 0
-80 79 0
81 77 80 0
-82 -29 0
-82 -81 0
-83 71 0
-83 82 0
-84 70 0
-84 83 0
-85 68 0
-85 84 0
-86 65 0
-86 85 0
87 55 86 0
-88 48 0
-88 -87 0
-89 1 0
-89 88 0
-90 1 0
-90 1 0
-91 89 0
-91 90 0
-92 -42 0
-92 91 0
92 0
